JVASP-12818_Na5InS4 NEB_v2 image 06     
   1.0000000000000000     
     6.8330688911791304    0.0000000000000000   -0.1272470229470229
    -0.0000000000000010   17.6718505513838551    0.0000000000000010
    -0.0048172062806638    0.0000000000000000    7.8804846921668430
   Na   In   S 
    19     4    16
Direct
  0.4701247587762794  0.3249299780315624  0.7761887034013952
  0.3371631717499213  0.0129445020224281  0.3336617730518654
  0.3552441051672091  0.2401325427051262  0.3429707584277679
  0.6455544932392314  0.4861969255266061  0.6767484827847809
  0.9443386511159417  0.1370337125035022  0.5317478410361289
  0.0198839785357023  0.3696775314454612  0.4955021146302911
  0.6697725335834406  0.1274298258508679  0.1538707807086865
  0.9952445682467967  0.0020706298694080  0.9957938495333636
  0.0129045622143664  0.2543680428951092  0.9804918628234915
  0.6529121964470974  0.7617048112780083  0.6625396630520015
  0.3433813880487691  0.5102709669971475  0.3392955033420719
  0.3450633024079082  0.7383312019234580  0.3334352704968779
  0.6531676994768389  0.9887930995875678  0.6629075323856313
  0.9654835317036330  0.6230792024707057  0.5294736069066275
  0.0296138130678543  0.8756516757174069  0.4710175131039520
  0.6759972605418696  0.6207682210302963  0.1547258567752934
  0.3315312583311680  0.8755715470103809  0.8433497162859780
  0.0420102965457616  0.4886880580813084  0.9950601827415611
  0.9971167350823791  0.7499801194488924  0.9998896447031811
  0.6561859303665187  0.3764860802083732  0.1769127219508277
  0.3496525741417358  0.1254125765746181  0.8147089322055621
  0.6448980559460935  0.8755333032704300  0.1796521575486949
  0.3496260313773263  0.6264461674254420  0.8187895112334758
  0.7792776562060197  0.3759409102598994  0.8839780238507657
  0.2382130221443646  0.1269516089747142  0.1159180754945197
  0.2276841551528221  0.0061100317229545  0.6688536285430615
  0.7685321873487467  0.2579638957312298  0.3274420993088256
  0.7689758997642713  0.4924275163351268  0.3415957050037264
  0.2187050088925417  0.2401828536225352  0.6653050384098762
  0.7167878073470604  0.1236376041203684  0.8177302778841664
  0.2857400552387688  0.3752656526422626  0.1838239158170367
  0.7593745949178938  0.8750431335497879  0.8802527174772337
  0.2382665039323868  0.6245450621436035  0.1186604118197820
  0.2322690395966092  0.5082015811702618  0.6705723829753154
  0.7663992868424927  0.7568551431033796  0.3278746372016670
  0.7646724094788411  0.9936283683144680  0.3287194906461224
  0.2282805351754291  0.7443614739274125  0.6683218640933148
  0.7191613073284628  0.6261814241074575  0.8155905410961779
  0.2745943380560973  0.8751540466553891  0.1819739175554744

             NaN             NaN             NaN
             NaN             NaN             NaN
             NaN             NaN             NaN
             NaN             NaN             NaN
             NaN             NaN             NaN
             NaN             NaN             NaN
             NaN             NaN             NaN
             NaN             NaN             NaN
             NaN             NaN             NaN
             NaN             NaN             NaN
             NaN             NaN             NaN
             NaN             NaN             NaN
             NaN             NaN             NaN
             NaN             NaN             NaN
             NaN             NaN             NaN
             NaN             NaN             NaN
             NaN             NaN             NaN
             NaN             NaN             NaN
             NaN             NaN             NaN
             NaN             NaN             NaN
             NaN             NaN             NaN
             NaN             NaN             NaN
             NaN             NaN             NaN
             NaN             NaN             NaN
             NaN             NaN             NaN
             NaN             NaN             NaN
             NaN             NaN             NaN
             NaN             NaN             NaN
             NaN             NaN             NaN
             NaN             NaN             NaN
             NaN             NaN             NaN
             NaN             NaN             NaN
             NaN             NaN             NaN
             NaN             NaN             NaN
             NaN             NaN             NaN
             NaN             NaN             NaN
             NaN             NaN             NaN
             NaN             NaN             NaN
             NaN             NaN             NaN
