JVASP-12818_Na5InS4 NEB_v2 image 06
  1.0
      6.8330688911791304      0.0000000000000000     -0.1272470229470229
     -0.0000000000000010     17.6718505513838551      0.0000000000000010
     -0.0048172062806638      0.0000000000000000      7.8804846921668430
  Na  In  S
  19  4  16
Direct
  0.4701247587762809  0.3249299780315651  0.7761887034013980
  0.3371631717499227  0.0129445020224314  0.3336617730518641
  0.3552441051672070  0.2401325427051242  0.3429707584277655
  0.6455544932392338  0.4861969255266068  0.6767484827847791
  0.9443386511159427  0.1370337125034993  0.5317478410361297
  0.0198839785357041  0.3696775314454588  0.4955021146302883
  0.6697725335834372  0.1274298258508692  0.1538707807086857
  0.9952445682467952  0.0020706298694074  0.9957938495333645
  0.0129045622143669  0.2543680428951058  0.9804918628234908
  0.6529121964470962  0.7617048112780050  0.6625396630520036
  0.3433813880487712  0.5102709669971488  0.3392955033420728
  0.3450633024079100  0.7383312019234555  0.3334352704968759
  0.6531676994768355  0.9887930995875649  0.6629075323856314
  0.9654835317036334  0.6230792024707064  0.5294736069066300
  0.0296138130678513  0.8756516757174060  0.4710175131039501
  0.6759972605418698  0.6207682210302929  0.1547258567752947
  0.3315312583311658  0.8755715470103782  0.8433497162859773
  0.0420102965457629  0.4886880580813094  0.9950601827415624
  0.9971167350823822  0.7499801194488911  0.9998896447031796
  0.6561859303665202  0.3764860802083754  0.1769127219508276
  0.3496525741417371  0.1254125765746166  0.8147089322055616
  0.6448980559460915  0.8755333032704330  0.1796521575486953
  0.3496260313773282  0.6264461674254399  0.8187895112334744
  0.7792776562060221  0.3759409102598966  0.8839780238507658
  0.2382130221443669  0.1269516089747117  0.1159180754945201
  0.2276841551528239  0.0061100317229538  0.6688536285430634
  0.7685321873487492  0.2579638957312311  0.3274420993088235
  0.7689758997642695  0.4924275163351235  0.3415957050037248
  0.2187050088925422  0.2401828536225374  0.6653050384098789
  0.7167878073470573  0.1236376041203679  0.8177302778841695
  0.2857400552387694  0.3752656526422617  0.1838239158170380
  0.7593745949178907  0.8750431335497860  0.8802527174772365
  0.2382665039323839  0.6245450621436042  0.1186604118197840
  0.2322690395966057  0.5082015811702604  0.6705723829753170
  0.7663992868424950  0.7568551431033809  0.3278746372016690
  0.7646724094788382  0.9936283683144647  0.3287194906461211
  0.2282805351754280  0.7443614739274101  0.6683218640933145
  0.7191613073284627  0.6261814241074541  0.8155905410961762
  0.2745943380560996  0.8751540466553858  0.1819739175554765
