Na2 Sb2 S4
1.0
   5.1174041074974159    0.0000000000000000   -4.7617587758225355
  -0.9703590312584053    5.0245624834294453   -4.7617587758225355
   0.0000000000000000    0.0000000000000000    6.9901481700000003
Na Sb S
2 2 4
direct
   0.5000000000000000    0.5000000000000000    0.0000000000000000 Na
   0.2500000000000000    0.7500000000000000    0.5000000000000000 Na
   0.0000000000000000    0.0000000000000000    0.0000000000000000 Sb
   0.7500000000000000    0.2500000000000000    0.5000000000000000 Sb
   0.7610150000000000    0.7610150000000000    0.0000000000000000 S
   0.2389850000000000    0.2389850000000000    0.0000000000000000 S
   0.9889850000000000    0.4889850000000000    0.5000000000000000 S
   0.5110150000000000    0.0110150000000000    0.5000000000000000 S
