Na1 Zn1 S2
1.0
   1.7803688598205918    1.0278964404144364    6.8944845742118455
  -1.7803688598205918    1.0278964404144364    6.8944845742118455
   0.0000000000000000   -2.0557928809312891    6.8944845742120453
Na Zn S
1 1 2
direct
   0.1652633540801222    0.1652633540801222    0.1652625368410387 Na
   0.9979143473414597    0.9979143473414598    0.9979094409455302 Zn
   0.5953762915327242    0.5953762915327242    0.5953733693294875 S
   0.4014497411254664    0.4014497411254664    0.4014477659620311 S
