# INCAR for structural relaxation of NMC-811_Li100
# Elastic property calculation - Step 1: Relaxation

SYSTEM = NMC-811_Li100

# Electronic relaxation
ENCUT = 600        # Plane-wave cutoff (eV)
PREC = Accurate
EDIFF = 1E-6       # Electronic convergence
NELMIN = 4
NELM = 200
LREAL = Auto       # Real space projection

# SCAN+rVV10 functional (meta-GGA with nonlocal vdW)
METAGGA = SCAN
LUSE_VDW = .TRUE.
BPARAM = 15.7      # rVV10 parameter for SCAN
LASPH = .TRUE.     # Non-spherical contributions (required for meta-GGA)
ADDGRID = .TRUE.   # Additional support grid for accuracy


# Ionic relaxation
IBRION = 2         # Conjugate gradient
ISIF = 3           # Relax ions, cell shape, and volume
NSW = 200          # Max ionic steps
EDIFFG = -0.01     # Force convergence (eV/A)

# SCAN+rVV10 functional (no U correction needed)

# Spin polarization
ISPIN = 2          # Spin-polarized
MAGMOM = 12*0.0 10*1.0 1*4.0 1*0.5 24*0.0

# Smearing
ISMEAR = 0         # Gaussian smearing
SIGMA = 0.05

# Output
LWAVE = .FALSE.
LCHARG = .FALSE.
LORBIT = 11        # DOSCAR and lm-decomposed PROCAR

# Parallelization
NCORE = 4
KPAR = 2

# vdW correction (important for layered materials)
