generated by phonopy                    
   1.0000000000000000     
    11.7732692783697388    0.0000000000000000    0.0000000000000008
     0.0000000000000024   15.6789074163783670    0.0000000000000010
     0.0000000000000000    0.0000000000000000   14.7846831983396569
   Na   S 
    32    80
Direct
  0.0999565844413581  0.4749410765560143  0.7500000000000000
  0.5999565844413581  0.4749410765560143  0.7500000000000000
  0.0999565844413581  0.9749410765560143  0.7500000000000000
  0.5999565844413581  0.9749410765560143  0.7500000000000000
  0.3499565844413581  0.2750589234439857  0.2500000000000000
  0.8499565844413581  0.2750589234439857  0.2500000000000000
  0.3499565844413581  0.7750589234439857  0.2500000000000000
  0.8499565844413581  0.7750589234439857  0.2500000000000000
  0.1500434155586419  0.2249410765560143  0.7500000000000000
  0.6500434155586419  0.2249410765560143  0.7500000000000000
  0.1500434155586419  0.7249410765560143  0.7500000000000000
  0.6500434155586419  0.7249410765560143  0.7500000000000000
  0.4000434155586419  0.0250589234439857  0.2500000000000000
  0.9000434155586419  0.0250589234439857  0.2500000000000000
  0.4000434155586419  0.5250589234439857  0.2500000000000000
  0.9000434155586419  0.5250589234439857  0.2500000000000000
  0.0000000000000000  0.0000000000000000  0.5006763756697268
  0.5000000000000000  0.0000000000000000  0.5000000000000000
  0.0000000000000000  0.5000000000000000  0.5000000000000000
  0.5000000000000000  0.5000000000000000  0.5000000000000000
  0.2500000000000000  0.2500000000000000  0.5000000000000000
  0.7500000000000000  0.2500000000000000  0.5000000000000000
  0.2500000000000000  0.7500000000000000  0.5000000000000000
  0.7500000000000000  0.7500000000000000  0.5000000000000000
  0.2500000000000000  0.2500000000000000  0.0000000000000000
  0.7500000000000000  0.2500000000000000  0.0000000000000000
  0.2500000000000000  0.7500000000000000  0.0000000000000000
  0.7500000000000000  0.7500000000000000  0.0000000000000000
  0.0000000000000000  0.0000000000000000  0.0000000000000000
  0.5000000000000000  0.0000000000000000  0.0000000000000000
  0.0000000000000000  0.5000000000000000  0.0000000000000000
  0.5000000000000000  0.5000000000000000  0.0000000000000000
  0.0530047541558645  0.2248433176015752  0.1354550983446217
  0.5530047541558645  0.2248433176015752  0.1354550983446217
  0.0530047541558645  0.7248433176015752  0.1354550983446217
  0.5530047541558645  0.7248433176015752  0.1354550983446217
  0.3030047541558645  0.0251566823984248  0.8645449016553783
  0.8030047541558645  0.0251566823984248  0.8645449016553783
  0.3030047541558645  0.5251566823984248  0.8645449016553783
  0.8030047541558645  0.5251566823984248  0.8645449016553783
  0.1969952458441426  0.4748433176015752  0.3645449016553783
  0.6969952458441355  0.4748433176015752  0.3645449016553783
  0.1969952458441355  0.9748433176015752  0.3645449016553783
  0.6969952458441355  0.9748433176015752  0.3645449016553783
  0.4469952458441355  0.2751566823984248  0.6354550983446217
  0.9469952458441355  0.2751566823984248  0.6354550983446217
  0.4469952458441355  0.7751566823984248  0.6354550983446217
  0.9469952458441355  0.7751566823984248  0.6354550983446217
  0.4469952458441355  0.2751566823984248  0.8645449016553783
  0.9469952458441355  0.2751566823984248  0.8645449016553783
  0.4469952458441355  0.7751566823984248  0.8645449016553783
  0.9469952458441355  0.7751566823984248  0.8645449016553783
  0.1969952458441426  0.4748433176015752  0.1354550983446217
  0.6969952458441355  0.4748433176015752  0.1354550983446217
  0.1969952458441355  0.9748433176015752  0.1354550983446217
  0.6969952458441355  0.9748433176015752  0.1354550983446217
  0.3030047541558645  0.0251566823984248  0.6354550983446217
  0.8030047541558645  0.0251566823984248  0.6354550983446217
  0.3030047541558645  0.5251566823984248  0.6354550983446217
  0.8030047541558645  0.5251566823984248  0.6354550983446217
  0.0530047541558645  0.2248433176015752  0.3645449016553783
  0.5530047541558645  0.2248433176015752  0.3645449016553783
  0.0530047541558645  0.7248433176015752  0.3645449016553783
  0.5530047541558645  0.7248433176015752  0.3645449016553783
  0.1332394640552153  0.1762497257193161  0.2500000000000000
  0.6332394640552153  0.1762497257193161  0.2500000000000000
  0.1332394640552153  0.6762497257193161  0.2500000000000000
  0.6332394640552153  0.6762497257193161  0.2500000000000000
  0.3832394640552153  0.0737502742806839  0.7500000000000000
  0.8832394640552153  0.0737502742806839  0.7500000000000000
  0.3832394640552153  0.5737502742806839  0.7500000000000000
  0.8832394640552153  0.5737502742806839  0.7500000000000000
  0.1167605359447847  0.4262497257193161  0.2500000000000000
  0.6167605359447847  0.4262497257193161  0.2500000000000000
  0.1167605359447847  0.9262497257193161  0.2500000000000000
  0.6167605359447847  0.9262497257193161  0.2500000000000000
  0.3667605359447847  0.3237502742806839  0.7500000000000000
  0.8667605359447847  0.3237502742806839  0.7500000000000000
  0.3667605359447847  0.8237502742806839  0.7500000000000000
  0.8667605359447847  0.8237502742806839  0.7500000000000000
  0.4172981198391241  0.1463150668451902  0.3965416463856002
  0.9172981198391241  0.1463150668451902  0.3965416463856002
  0.4172981198391241  0.6463150668451902  0.3965416463856002
  0.9172981198391241  0.6463150668451902  0.3965416463856002
  0.1672981198391170  0.1036849331548098  0.6034583536143998
  0.6672981198391170  0.1036849331548098  0.6034583536143998
  0.1672981198391170  0.6036849331548098  0.6034583536143998
  0.6672981198391170  0.6036849331548098  0.6034583536143998
  0.3327018801608759  0.3963150668451902  0.1034583536143998
  0.8327018801608759  0.3963150668451902  0.1034583536143998
  0.3327018801608759  0.8963150668451902  0.1034583536143998
  0.8327018801608759  0.8963150668451902  0.1034583536143998
  0.0827018801608759  0.3536849331548098  0.8965416463856002
  0.5827018801608759  0.3536849331548098  0.8965416463856002
  0.0827018801608759  0.8536849331548098  0.8965416463856002
  0.5827018801608759  0.8536849331548098  0.8965416463856002
  0.0827018801608759  0.3536849331548098  0.6034583536143998
  0.5827018801608759  0.3536849331548098  0.6034583536143998
  0.0827018801608759  0.8536849331548098  0.6034583536143998
  0.5827018801608759  0.8536849331548098  0.6034583536143998
  0.3327018801608759  0.3963150668451902  0.3965416463856002
  0.8327018801608759  0.3963150668451902  0.3965416463856002
  0.3327018801608759  0.8963150668451902  0.3965416463856002
  0.8327018801608759  0.8963150668451902  0.3965416463856002
  0.1672981198391170  0.1036849331548098  0.8965416463856002
  0.6672981198391170  0.1036849331548098  0.8965416463856002
  0.1672981198391170  0.6036849331548098  0.8965416463856002
  0.6672981198391170  0.6036849331548098  0.8965416463856002
  0.4172981198391241  0.1463150668451902  0.1034583536143998
  0.9172981198391241  0.1463150668451902  0.1034583536143998
  0.4172981198391241  0.6463150668451902  0.1034583536143998
  0.9172981198391241  0.6463150668451902  0.1034583536143998

  0.00000000E+00  0.00000000E+00  0.00000000E+00
  0.00000000E+00  0.00000000E+00  0.00000000E+00
  0.00000000E+00  0.00000000E+00  0.00000000E+00
  0.00000000E+00  0.00000000E+00  0.00000000E+00
  0.00000000E+00  0.00000000E+00  0.00000000E+00
  0.00000000E+00  0.00000000E+00  0.00000000E+00
  0.00000000E+00  0.00000000E+00  0.00000000E+00
  0.00000000E+00  0.00000000E+00  0.00000000E+00
  0.00000000E+00  0.00000000E+00  0.00000000E+00
  0.00000000E+00  0.00000000E+00  0.00000000E+00
  0.00000000E+00  0.00000000E+00  0.00000000E+00
  0.00000000E+00  0.00000000E+00  0.00000000E+00
  0.00000000E+00  0.00000000E+00  0.00000000E+00
  0.00000000E+00  0.00000000E+00  0.00000000E+00
  0.00000000E+00  0.00000000E+00  0.00000000E+00
  0.00000000E+00  0.00000000E+00  0.00000000E+00
  0.00000000E+00  0.00000000E+00  0.00000000E+00
  0.00000000E+00  0.00000000E+00  0.00000000E+00
  0.00000000E+00  0.00000000E+00  0.00000000E+00
  0.00000000E+00  0.00000000E+00  0.00000000E+00
  0.00000000E+00  0.00000000E+00  0.00000000E+00
  0.00000000E+00  0.00000000E+00  0.00000000E+00
  0.00000000E+00  0.00000000E+00  0.00000000E+00
  0.00000000E+00  0.00000000E+00  0.00000000E+00
  0.00000000E+00  0.00000000E+00  0.00000000E+00
  0.00000000E+00  0.00000000E+00  0.00000000E+00
  0.00000000E+00  0.00000000E+00  0.00000000E+00
  0.00000000E+00  0.00000000E+00  0.00000000E+00
  0.00000000E+00  0.00000000E+00  0.00000000E+00
  0.00000000E+00  0.00000000E+00  0.00000000E+00
  0.00000000E+00  0.00000000E+00  0.00000000E+00
  0.00000000E+00  0.00000000E+00  0.00000000E+00
  0.00000000E+00  0.00000000E+00  0.00000000E+00
  0.00000000E+00  0.00000000E+00  0.00000000E+00
  0.00000000E+00  0.00000000E+00  0.00000000E+00
  0.00000000E+00  0.00000000E+00  0.00000000E+00
  0.00000000E+00  0.00000000E+00  0.00000000E+00
  0.00000000E+00  0.00000000E+00  0.00000000E+00
  0.00000000E+00  0.00000000E+00  0.00000000E+00
  0.00000000E+00  0.00000000E+00  0.00000000E+00
  0.00000000E+00  0.00000000E+00  0.00000000E+00
  0.00000000E+00  0.00000000E+00  0.00000000E+00
  0.00000000E+00  0.00000000E+00  0.00000000E+00
  0.00000000E+00  0.00000000E+00  0.00000000E+00
  0.00000000E+00  0.00000000E+00  0.00000000E+00
  0.00000000E+00  0.00000000E+00  0.00000000E+00
  0.00000000E+00  0.00000000E+00  0.00000000E+00
  0.00000000E+00  0.00000000E+00  0.00000000E+00
  0.00000000E+00  0.00000000E+00  0.00000000E+00
  0.00000000E+00  0.00000000E+00  0.00000000E+00
  0.00000000E+00  0.00000000E+00  0.00000000E+00
  0.00000000E+00  0.00000000E+00  0.00000000E+00
  0.00000000E+00  0.00000000E+00  0.00000000E+00
  0.00000000E+00  0.00000000E+00  0.00000000E+00
  0.00000000E+00  0.00000000E+00  0.00000000E+00
  0.00000000E+00  0.00000000E+00  0.00000000E+00
  0.00000000E+00  0.00000000E+00  0.00000000E+00
  0.00000000E+00  0.00000000E+00  0.00000000E+00
  0.00000000E+00  0.00000000E+00  0.00000000E+00
  0.00000000E+00  0.00000000E+00  0.00000000E+00
  0.00000000E+00  0.00000000E+00  0.00000000E+00
  0.00000000E+00  0.00000000E+00  0.00000000E+00
  0.00000000E+00  0.00000000E+00  0.00000000E+00
  0.00000000E+00  0.00000000E+00  0.00000000E+00
  0.00000000E+00  0.00000000E+00  0.00000000E+00
  0.00000000E+00  0.00000000E+00  0.00000000E+00
  0.00000000E+00  0.00000000E+00  0.00000000E+00
  0.00000000E+00  0.00000000E+00  0.00000000E+00
  0.00000000E+00  0.00000000E+00  0.00000000E+00
  0.00000000E+00  0.00000000E+00  0.00000000E+00
  0.00000000E+00  0.00000000E+00  0.00000000E+00
  0.00000000E+00  0.00000000E+00  0.00000000E+00
  0.00000000E+00  0.00000000E+00  0.00000000E+00
  0.00000000E+00  0.00000000E+00  0.00000000E+00
  0.00000000E+00  0.00000000E+00  0.00000000E+00
  0.00000000E+00  0.00000000E+00  0.00000000E+00
  0.00000000E+00  0.00000000E+00  0.00000000E+00
  0.00000000E+00  0.00000000E+00  0.00000000E+00
  0.00000000E+00  0.00000000E+00  0.00000000E+00
  0.00000000E+00  0.00000000E+00  0.00000000E+00
  0.00000000E+00  0.00000000E+00  0.00000000E+00
  0.00000000E+00  0.00000000E+00  0.00000000E+00
  0.00000000E+00  0.00000000E+00  0.00000000E+00
  0.00000000E+00  0.00000000E+00  0.00000000E+00
  0.00000000E+00  0.00000000E+00  0.00000000E+00
  0.00000000E+00  0.00000000E+00  0.00000000E+00
  0.00000000E+00  0.00000000E+00  0.00000000E+00
  0.00000000E+00  0.00000000E+00  0.00000000E+00
  0.00000000E+00  0.00000000E+00  0.00000000E+00
  0.00000000E+00  0.00000000E+00  0.00000000E+00
  0.00000000E+00  0.00000000E+00  0.00000000E+00
  0.00000000E+00  0.00000000E+00  0.00000000E+00
  0.00000000E+00  0.00000000E+00  0.00000000E+00
  0.00000000E+00  0.00000000E+00  0.00000000E+00
  0.00000000E+00  0.00000000E+00  0.00000000E+00
  0.00000000E+00  0.00000000E+00  0.00000000E+00
  0.00000000E+00  0.00000000E+00  0.00000000E+00
  0.00000000E+00  0.00000000E+00  0.00000000E+00
  0.00000000E+00  0.00000000E+00  0.00000000E+00
  0.00000000E+00  0.00000000E+00  0.00000000E+00
  0.00000000E+00  0.00000000E+00  0.00000000E+00
  0.00000000E+00  0.00000000E+00  0.00000000E+00
  0.00000000E+00  0.00000000E+00  0.00000000E+00
  0.00000000E+00  0.00000000E+00  0.00000000E+00
  0.00000000E+00  0.00000000E+00  0.00000000E+00
  0.00000000E+00  0.00000000E+00  0.00000000E+00
  0.00000000E+00  0.00000000E+00  0.00000000E+00
  0.00000000E+00  0.00000000E+00  0.00000000E+00
  0.00000000E+00  0.00000000E+00  0.00000000E+00
  0.00000000E+00  0.00000000E+00  0.00000000E+00
  0.00000000E+00  0.00000000E+00  0.00000000E+00
  0.00000000E+00  0.00000000E+00  0.00000000E+00
