Na4 S4                                  
   1.0000000000000000     
     2.2555647329342312   -3.9067527172026142    0.0000000000000000
     2.2555647329342312    3.9067527172026142    0.0000000000000000
     0.0000000000000000    0.0000000000000000   10.2925883335203583
   Na   S 
     4     4
Direct
 -0.0000000000000000 -0.0000000000000000 -0.0000000000000000
 -0.0000000000000000 -0.0000000000000000  0.5000000000000000
  0.3333333333333357  0.6666666666666643  0.2500000000000000
  0.6666666666666643  0.3333333333333357  0.7500000000000000
  0.3333333333333357  0.6666666666666643  0.6446150181262815
  0.6666666666666643  0.3333333333333357  0.1446150181262816
  0.6666666666666643  0.3333333333333357  0.3553849818737185
  0.3333333333333357  0.6666666666666643  0.8553849818737185

  0.00000000E+00  0.00000000E+00  0.00000000E+00
  0.00000000E+00  0.00000000E+00  0.00000000E+00
  0.00000000E+00  0.00000000E+00  0.00000000E+00
  0.00000000E+00  0.00000000E+00  0.00000000E+00
  0.00000000E+00  0.00000000E+00  0.00000000E+00
  0.00000000E+00  0.00000000E+00  0.00000000E+00
  0.00000000E+00  0.00000000E+00  0.00000000E+00
  0.00000000E+00  0.00000000E+00  0.00000000E+00
