user_Na5AlS4_Na5AlS4 NEB_v2 image 05    
   1.0000000000000000     
    12.1026382039385112    0.0000000000000000    0.0000000000000007
    -0.0000000000000004    7.0938170788834114    0.0000000000000004
     0.0000000000000000    0.0000000000000000   21.6510149562332330
   Na   Al   S 
    39     8    32
Direct
  0.3498894837660060  0.8974649418817293  0.4994938271928504
  0.6513246128306278  0.4073493192993070  0.0015076631214157
  0.1518930069579696  0.0925898646297156  0.9980761348885778
  0.1543907699890497  0.4081068087594133  0.5017830236314182
  0.3485610531040351  0.5923451806003044  0.9985514121195180
  0.6509820024927393  0.1021210768394383  0.5002856280130032
  0.8449843734425855  0.5911064452611328  0.4978972937208255
  0.8480695345661999  0.9073815441300042  0.0020120513676858
  0.2927682046554096  0.5448523606657432  0.3653668500812017
  0.7120918056503101  0.0523802162045826  0.1391250004139479
  0.2112965647529492  0.4479247785051896  0.8616186583542316
  0.2134889626684284  0.0474792689825918  0.3659488438011849
  0.2878511240658312  0.9472872712679461  0.8611419624971504
  0.7070938959881374  0.4552658946636825  0.6347018048733446
  0.7867939798011108  0.9531528122630633  0.6340967768189074
  0.7886510441778611  0.5524317533218692  0.1383147654069603
  0.4999356298289186  0.4995396930254330  0.5001903735513409
  0.4469157732684650  0.0633603408408518  0.0655042109724207
  0.9463629534570117  0.4369845457775128  0.9346358746830603
  0.9474436632514269  0.0579377520000790  0.4347724995091724
  0.5532401223883454  0.9365097722126663  0.9345205059217463
  0.0527738738705068  0.9419674714427231  0.5651607365928868
  0.0534122614872601  0.5630431348591500  0.0653457904027803
  0.5833543984766720  0.3823937902023502  0.2552692159729233
  0.4163764235452305  0.8798713858495617  0.2488679690515312
  0.9137145017247335  0.6182438354834687  0.7522780398424516
  0.9165710671314855  0.8856344751520098  0.2539198685197803
  0.5834590939094753  0.1193972030878783  0.7511533263948920
  0.4170529323179153  0.6167496304839233  0.7447475174597926
  0.0836741836701265  0.1151519465298207  0.7462378918723260
  0.0862422734993018  0.3827378045744183  0.2476679610366332
  0.8342802996790724  0.1055566822992873  0.8296197372144505
  0.1660486493998974  0.6126987108679529  0.6677973008817801
  0.6596859333034075  0.8690648924380824  0.3383314971191496
  0.6639667175980577  0.6058741240028596  0.8296544789340956
  0.8343344846504195  0.3875534684467112  0.3321620521850406
  0.1655205866278990  0.8946366000569412  0.1703183514861593
  0.3362181218671907  0.3940262867801536  0.1704396542809974
  0.3400490673430596  0.1313008041182826  0.6614544101433282
  0.0398241494818024  0.8324664612682682  0.8739663749114968
  0.9561156528696699  0.3382264910510102  0.6255349101921865
  0.4577135790123421  0.1613027185601794  0.3758212215284900
  0.4582077014498154  0.3323614730478184  0.8730002307179205
  0.0437359223731022  0.6618734245690945  0.3744916482188501
  0.9601016700084060  0.1677008291902098  0.1260360693890519
  0.5415504412545431  0.6675086648316366  0.1269539512912203
  0.5425003497774128  0.8383821269911707  0.6241985139008790
  0.3689594759942167  0.2078209009533936  0.9567127245553522
  0.6395570504153696  0.7276479528818456  0.5419690186277819
  0.1300262303900510  0.7856986344135564  0.4587818192113673
  0.1306810052948180  0.7081155953827292  0.9570547020604465
  0.3605615718851070  0.2722469403133232  0.4580128450275822
  0.6309675135518091  0.7922851971713953  0.0433001793513839
  0.8692205875166792  0.2920527519234923  0.0429640010426624
  0.8700707633850655  0.2141547038821585  0.5411642290900360
  0.4451469111161401  0.8430172514145013  0.3787921430582912
  0.5528832044067542  0.3493192376289400  0.1241392568073465
  0.0513654680145521  0.1506079791149588  0.8760770857487472
  0.0541090525396868  0.3443820177995818  0.3770520461233176
  0.4469754717321450  0.6506220697904510  0.8758012230218100
  0.5548168059897662  0.1566211447642019  0.6212242837491573
  0.9459251723149933  0.6556668659553182  0.6228367379568951
  0.9485810880972210  0.8495300048165149  0.1239671266368703
  0.1357371264340230  0.2481866016019723  0.6253762795329578
  0.8590604606301611  0.7444170152336582  0.8765830339808645
  0.3608455300632727  0.7556235806372129  0.1244457926110343
  0.3627208485126872  0.7515311565943037  0.6223909955042046
  0.1408824658717904  0.2556569494405707  0.1233767486505144
  0.8640819642401567  0.7517163371885758  0.3747962635137014
  0.6375264045720215  0.2480182803099424  0.3776266636817738
  0.6388849605581655  0.2441745103875022  0.8754980788402591
  0.6312407904460287  0.7572992264694633  0.2150498471916151
  0.3688061510426053  0.2525607333818698  0.2870955708978400
  0.8642617747267138  0.2465822525804384  0.7126441134012609
  0.8714502502643668  0.2593927869625432  0.2140839577534095
  0.6316725854821428  0.7481694937986916  0.7129624069772689
  0.3685590090891324  0.2425098995707131  0.7849163109260004
  0.1284596113361900  0.7409377688533780  0.7858979198420428
  0.1354497966539583  0.7541380814655483  0.2874327141451403

             NaN             NaN             NaN
             NaN             NaN             NaN
             NaN             NaN             NaN
             NaN             NaN             NaN
             NaN             NaN             NaN
             NaN             NaN             NaN
             NaN             NaN             NaN
             NaN             NaN             NaN
             NaN             NaN             NaN
             NaN             NaN             NaN
             NaN             NaN             NaN
             NaN             NaN             NaN
             NaN             NaN             NaN
             NaN             NaN             NaN
             NaN             NaN             NaN
             NaN             NaN             NaN
             NaN             NaN             NaN
             NaN             NaN             NaN
             NaN             NaN             NaN
             NaN             NaN             NaN
             NaN             NaN             NaN
             NaN             NaN             NaN
             NaN             NaN             NaN
             NaN             NaN             NaN
             NaN             NaN             NaN
             NaN             NaN             NaN
             NaN             NaN             NaN
             NaN             NaN             NaN
             NaN             NaN             NaN
             NaN             NaN             NaN
             NaN             NaN             NaN
             NaN             NaN             NaN
             NaN             NaN             NaN
             NaN             NaN             NaN
             NaN             NaN             NaN
             NaN             NaN             NaN
             NaN             NaN             NaN
             NaN             NaN             NaN
             NaN             NaN             NaN
             NaN             NaN             NaN
             NaN             NaN             NaN
             NaN             NaN             NaN
             NaN             NaN             NaN
             NaN             NaN             NaN
             NaN             NaN             NaN
             NaN             NaN             NaN
             NaN             NaN             NaN
             NaN             NaN             NaN
             NaN             NaN             NaN
             NaN             NaN             NaN
             NaN             NaN             NaN
             NaN             NaN             NaN
             NaN             NaN             NaN
             NaN             NaN             NaN
             NaN             NaN             NaN
             NaN             NaN             NaN
             NaN             NaN             NaN
             NaN             NaN             NaN
             NaN             NaN             NaN
             NaN             NaN             NaN
             NaN             NaN             NaN
             NaN             NaN             NaN
             NaN             NaN             NaN
             NaN             NaN             NaN
             NaN             NaN             NaN
             NaN             NaN             NaN
             NaN             NaN             NaN
             NaN             NaN             NaN
             NaN             NaN             NaN
             NaN             NaN             NaN
             NaN             NaN             NaN
             NaN             NaN             NaN
             NaN             NaN             NaN
             NaN             NaN             NaN
             NaN             NaN             NaN
             NaN             NaN             NaN
             NaN             NaN             NaN
             NaN             NaN             NaN
             NaN             NaN             NaN
