user_Na5AlS4_Na5AlS4 NEB_v2 image 05
  1.0
     12.1026382039385112      0.0000000000000000      0.0000000000000007
     -0.0000000000000004      7.0938170788834114      0.0000000000000004
      0.0000000000000000      0.0000000000000000     21.6510149562332330
  Na  Al  S
  39  8  32
Direct
  0.3498894837660038  0.8974649418817321  0.4994938271928528
  0.6513246128306296  0.4073493192993082  0.0015076631214146
  0.1518930069579714  0.0925898646297189  0.9980761348885776
  0.1543907699890523  0.4081068087594103  0.5017830236314210
  0.3485610531040386  0.5923451806003056  0.9985514121195160
  0.6509820024927393  0.1021210768394351  0.5002856280130008
  0.8449843734425850  0.5911064452611362  0.4978972937208246
  0.8480695345662005  0.9073815441300075  0.0020120513676864
  0.2927682046554075  0.5448523606657447  0.3653668500812026
  0.7120918056503101  0.0523802162045843  0.1391250004139508
  0.2112965647529472  0.4479247785051922  0.8616186583542340
  0.2134889626684275  0.0474792689825899  0.3659488438011823
  0.2878511240658285  0.9472872712679452  0.8611419624971483
  0.7070938959881368  0.4552658946636824  0.6347018048733433
  0.7867939798011088  0.9531528122630644  0.6340967768189081
  0.7886510441778645  0.5524317533218667  0.1383147654069629
  0.4999356298289219  0.4995396930254342  0.5001903735513378
  0.4469157732684650  0.0633603408408547  0.0655042109724212
  0.9463629534570108  0.4369845457775143  0.9346358746830619
  0.9474436632514296  0.0579377520000782  0.4347724995091758
  0.5532401223883423  0.9365097722126676  0.9345205059217492
  0.0527738738705049  0.9419674714427253  0.5651607365928861
  0.0534122614872614  0.5630431348591484  0.0653457904027830
  0.5833543984766694  0.3823937902023507  0.2552692159729223
  0.4163764235452322  0.8798713858495589  0.2488679690515301
  0.9137145017247303  0.6182438354834709  0.7522780398424542
  0.9165710671314876  0.8856344751520120  0.2539198685197792
  0.5834590939094775  0.1193972030878790  0.7511533263948951
  0.4170529323179188  0.6167496304839228  0.7447475174597916
  0.0836741836701261  0.1151519465298243  0.7462378918723251
  0.0862422734993012  0.3827378045744164  0.2476679610366325
  0.8342802996790692  0.1055566822992891  0.8296197372144518
  0.1660486493999002  0.6126987108679549  0.6677973008817782
  0.6596859333034095  0.8690648924380855  0.3383314971191516
  0.6639667175980558  0.6058741240028613  0.8296544789340968
  0.8343344846504166  0.3875534684467140  0.3321620521850385
  0.1655205866278955  0.8946366000569410  0.1703183514861595
  0.3362181218671881  0.3940262867801556  0.1704396542809983
  0.3400490673430581  0.1313008041182803  0.6614544101433277
  0.0398241494818025  0.8324664612682675  0.8739663749114988
  0.9561156528696728  0.3382264910510104  0.6255349101921852
  0.4577135790123422  0.1613027185601800  0.3758212215284888
  0.4582077014498181  0.3323614730478175  0.8730002307179209
  0.0437359223730988  0.6618734245690976  0.3744916482188491
  0.9601016700084077  0.1677008291902105  0.1260360693890493
  0.5415504412545438  0.6675086648316351  0.1269539512912176
  0.5425003497774108  0.8383821269911704  0.6241985139008803
  0.3689594759942189  0.2078209009533963  0.9567127245553551
  0.6395570504153667  0.7276479528818433  0.5419690186277787
  0.1300262303900488  0.7856986344135585  0.4587818192113702
  0.1306810052948213  0.7081155953827267  0.9570547020604436
  0.3605615718851053  0.2722469403133234  0.4580128450275840
  0.6309675135518069  0.7922851971713987  0.0433001793513854
  0.8692205875166805  0.2920527519234892  0.0429640010426594
  0.8700707633850661  0.2141547038821608  0.5411642290900343
  0.4451469111161424  0.8430172514145038  0.3787921430582884
  0.5528832044067539  0.3493192376289390  0.1241392568073439
  0.0513654680145532  0.1506079791149562  0.8760770857487481
  0.0541090525396892  0.3443820177995798  0.3770520461233168
  0.4469754717321477  0.6506220697904495  0.8758012230218124
  0.5548168059897658  0.1566211447642002  0.6212242837491584
  0.9459251723149928  0.6556668659553194  0.6228367379568918
  0.9485810880972233  0.8495300048165172  0.1239671266368700
  0.1357371264340205  0.2481866016019710  0.6253762795329580
  0.8590604606301632  0.7444170152336564  0.8765830339808676
  0.3608455300632712  0.7556235806372137  0.1244457926110367
  0.3627208485126865  0.7515311565943066  0.6223909955042077
  0.1408824658717902  0.2556569494405692  0.1233767486505127
  0.8640819642401539  0.7517163371885724  0.3747962635137000
  0.6375264045720184  0.2480182803099411  0.3776266636817720
  0.6388849605581672  0.2441745103875000  0.8754980788402613
  0.6312407904460317  0.7572992264694657  0.2150498471916157
  0.3688061510426042  0.2525607333818725  0.2870955708978375
  0.8642617747267133  0.2465822525804393  0.7126441134012631
  0.8714502502643673  0.2593927869625441  0.2140839577534085
  0.6316725854821452  0.7481694937986944  0.7129624069772719
  0.3685590090891321  0.2425098995707142  0.7849163109260004
  0.1284596113361877  0.7409377688533785  0.7858979198420449
  0.1354497966539580  0.7541380814655473  0.2874327141451368
