Li6 P2 S8                               
   1.00000000000000     
     7.7867110000000004    0.0000000000000000    0.0000000000000000
     0.0000000000000000    6.6170130000000000    0.0000000000000000
     0.0000000000000000    0.0000000000000000    6.2188189999999999
   Li   P    S 
     6     2     8
Direct
  0.7324059209349610  0.0923501661972241  0.1892119255324109
  0.4326893223317411  0.7126894009962790  0.0693227414856728
  0.2420675054755618  0.9011583169837512  0.6610468743907465
  0.2667762875535484  0.1978955369841934  0.0592233308711104
  0.7337090186467448  0.8144699888860669  0.5763684146457383
  0.9813816830901536  0.3747690056693994  0.6684040585242582
  0.9896521362517621  0.8138751889121424  0.0452966007902130
  0.4772266618039905  0.2270934775183684  0.5261281753947292
  0.9892314898276593  0.1242398441746191  0.9663152434924583
  0.9999974840453798  0.8223659783808765  0.3781288541884345
  0.1646438532616137  0.6240561660122248  0.8726909393234026
  0.2876459598853657  0.4061750301759045  0.4334161483442358
  0.5045446749408508  0.1364783993465315  0.8372816579362311
  0.4586537849793362  0.9384113502478466  0.3263864229586594
  0.6854910300573567  0.3894557730455117  0.3998779396157113
  0.7474327630020530  0.7174520254929203  0.9696937525405305
 
  0.70371178E-02 -0.59979834E-02  0.11478482E-01
 -0.13615142E-01  0.39394663E-02 -0.88528302E-02
  0.12638011E-01  0.79567900E-02 -0.10049107E-01
 -0.17595756E-01  0.40017290E-02  0.27719437E-01
 -0.22712142E-02 -0.56448568E-02 -0.21582288E-01
  0.54909120E-02  0.11008574E-02 -0.48265489E-02
 -0.52009370E-02  0.80396160E-02  0.48800214E-03
  0.54676867E-02 -0.14797664E-02 -0.88598707E-02
 -0.51290614E-02  0.35308132E-02  0.72553067E-03
  0.38765878E-02  0.12101184E-02 -0.93232228E-02
  0.30098341E-02  0.10317574E-02 -0.28252567E-02
  0.53362796E-02 -0.52823944E-02  0.64998429E-02
 -0.40085955E-02 -0.15550615E-02  0.48774196E-02
 -0.78219002E-02  0.32942298E-03  0.24416191E-02
  0.76976179E-02 -0.15020286E-01  0.46527879E-02
 -0.14004383E-02  0.82482901E-02  0.23743872E-02
 
           1
   1.00000000000000     
  0.46160971E+00 -0.10177705E-01  0.70641830E-18  0.00000000E+00
  0.73330966E+00  0.91443717E-01  0.19105769E+00
  0.43094081E+00  0.71328476E+00  0.67899187E-01
  0.24369053E+00  0.90236079E+00  0.65943096E+00
  0.26451657E+00  0.19850030E+00  0.63680678E-01
  0.73341734E+00  0.81361691E+00  0.57289793E+00
  0.98208685E+00  0.37493537E+00  0.66762794E+00
  0.98898421E+00  0.81509018E+00  0.45375073E-01
  0.47792884E+00  0.22686985E+00  0.52470349E+00
  0.98857280E+00  0.12477344E+00  0.96643191E+00
  0.49533067E-03  0.82254886E+00  0.37662966E+00
  0.16503039E+00  0.62421209E+00  0.87223663E+00
  0.28833127E+00  0.40537673E+00  0.43446134E+00
  0.50402988E+00  0.13624339E+00  0.83806596E+00
  0.45764927E+00  0.93846113E+00  0.32677904E+00
  0.68647959E+00  0.38718582E+00  0.40062612E+00
  0.74725291E+00  0.71869855E+00  0.97007556E+00
  0.90263028E-03 -0.88947970E-03  0.18382490E-02
 -0.17364098E-02  0.65024946E-03 -0.13714549E-02
  0.15944983E-02  0.11791518E-02 -0.15263344E-02
 -0.22564143E-02  0.57285426E-03  0.43336485E-02
 -0.25168571E-03 -0.82145467E-03 -0.34171393E-02
  0.70441425E-03  0.15492110E-03 -0.70461198E-03
 -0.63625595E-03  0.11955795E-02  0.63240247E-04
  0.66902211E-03 -0.22458964E-03 -0.13792094E-02
 -0.65577776E-03  0.54816560E-03  0.11575315E-03
  0.48910858E-03  0.18221975E-03 -0.14664140E-02
  0.37593978E-03  0.13841032E-03 -0.46514127E-03
  0.71055031E-03 -0.78824601E-03  0.10245078E-02
 -0.50395214E-03 -0.23956127E-03  0.79647324E-03
 -0.99884611E-03  0.26384703E-04  0.34574022E-03
  0.96671445E-03 -0.22284131E-02  0.71894126E-03
 -0.18738274E-03  0.12381185E-02  0.38659831E-03
  0.00000000E+00  0.00000000E+00  0.00000000E+00
  0.00000000E+00  0.00000000E+00  0.00000000E+00
  0.00000000E+00  0.00000000E+00  0.00000000E+00
  0.00000000E+00  0.00000000E+00  0.00000000E+00
  0.00000000E+00  0.00000000E+00  0.00000000E+00
  0.00000000E+00  0.00000000E+00  0.00000000E+00
  0.00000000E+00  0.00000000E+00  0.00000000E+00
  0.00000000E+00  0.00000000E+00  0.00000000E+00
  0.00000000E+00  0.00000000E+00  0.00000000E+00
  0.00000000E+00  0.00000000E+00  0.00000000E+00
  0.00000000E+00  0.00000000E+00  0.00000000E+00
  0.00000000E+00  0.00000000E+00  0.00000000E+00
  0.00000000E+00  0.00000000E+00  0.00000000E+00
  0.00000000E+00  0.00000000E+00  0.00000000E+00
  0.00000000E+00  0.00000000E+00  0.00000000E+00
  0.00000000E+00  0.00000000E+00  0.00000000E+00
