Na4 S4                                  
   1.0000000000000000     
     2.2555644709636340   -3.9067522634562288   -0.0000000000000000
     2.2555644709636340    3.9067522634562288    0.0000000000000000
     0.0000000000000000   -0.0000000000000000   10.2925965411765397
   Na   S 
     4     4
Direct
 -0.0000000000000000  0.0000000000000000  0.0000000000000000
 -0.0000000000000000  0.0000000000000000  0.5000000000000000
  0.3333333333333357  0.6666666666666643  0.2500000000000000
  0.6666666666666643  0.3333333333333357  0.7500000000000000
  0.3333333333333357  0.6666666666666643  0.6446151053984457
  0.6666666666666643  0.3333333333333357  0.1446151053984455
  0.6666666666666643  0.3333333333333357  0.3553848946015545
  0.3333333333333357  0.6666666666666643  0.8553848946015543

  0.00000000E+00  0.00000000E+00  0.00000000E+00
  0.00000000E+00  0.00000000E+00  0.00000000E+00
  0.00000000E+00  0.00000000E+00  0.00000000E+00
  0.00000000E+00  0.00000000E+00  0.00000000E+00
  0.00000000E+00  0.00000000E+00  0.00000000E+00
  0.00000000E+00  0.00000000E+00  0.00000000E+00
  0.00000000E+00  0.00000000E+00  0.00000000E+00
  0.00000000E+00  0.00000000E+00  0.00000000E+00
