pymatgen with grid density = 500 / number of atoms
0
Gamma
5 4 7
