Na1 Zn1 S1
1.0
   4.8637408581861870    1.9714810195734531    0.0000000000000000
   3.0590208746501868    6.3050594878763428    0.0000000000000000
   0.0000000000000000    0.0000000000000000    4.1622939797085436
Na Zn S
1 1 1
direct
  -0.0781679459644966   -0.0583970928519088    0.0000000000000000 Na
  -0.0714705237561547    0.4416596431075632    0.0000000000000000 Zn
   0.4216656498914961   -0.0583706644821723    0.0000000000000000 S
