Na Al S                                 
   1.0000000000000000     
    12.1828203277415312    0.0000000000000000    0.0000000000000007
    -0.0000000000000005    7.5674693205415418    1.1970639402156102
     0.0000000000000000    0.0113082934473333   13.7304524371335805
   Na   Al   S 
    23     8    24
Direct
  0.9785240777274282  0.0538074882641979  0.7967976994699981
  0.7909269994858974  0.8591664847180454  0.9741507957607567
  0.7930433582859990  0.5414880725982627  0.7501026764063567
  0.7347595690289381  0.9191558884360163  0.5337933168310016
  0.9095108597988855  0.1026224595694814  0.3851534397316954
  0.2405375915320462  0.5749682624780235  0.4864892667452381
  0.8178921400650125  0.5056072273870740  0.2592355805231747
  0.2647795925883685  0.0726880917523332  0.4862772974114762
  0.7299112691868075  0.4562595654408170  0.9967880935272433
  0.4143045724628678  0.3883254029587775  0.6373435857789218
  0.2594462251361307  0.5083447719343397  0.9694754846845512
  0.2527487232717434  0.0065263293340436  0.9693076291223122
  0.7605609669819700  0.4156820339694036  0.5339139269910405
  0.1973021885500827  0.4578796310029389  0.2618770956973435
  0.0885448485928251  0.9346045283231987  0.2135627018405941
  0.5863238112990814  0.6074257473464471  0.3750532232339552
  0.3319046489529356  0.0013986390004987  0.7506452836928901
  0.0852149468706003  0.8911050710705126  0.6384235887966554
  0.1742787965011701  0.4937691219712121  0.7514726670562482
  0.4885466277993160  0.4085333501815072  0.2033677645485739
  0.6921183524151999  0.0304734441924026  0.7583673220411100
  0.5191371251607393  0.5846190275557461  0.8017527948688894
  0.6515957776388106  0.9714409981595864  0.2711786542190708
  0.0003368278189981  0.2802659192859096  0.0230565805988334
  0.0191157362377794  0.3069871096624865  0.5887448463432037
  0.5268425243944748  0.1618431001074541  0.4626126299534050
  0.4801433049861430  0.8168413287035534  0.5775671781860865
  0.5210191832465796  0.1730467680465324  0.9008156501104310
  0.5213095374559131  0.8586735780154342  0.0496481943546883
  0.9705091471608114  0.6719380620302005  0.4646140068147773
  0.9840116627193396  0.7138225904314552  0.8710427964500269
  0.3700428171754453  0.3098675898324714  0.8222184840180873
  0.2197077293301106  0.1569477710214571  0.1200392857377750
  0.4025696738279549  0.3697057220326130  0.4307352403490583
  0.1429013999735744  0.8350109823363425  0.8136515670503144
  0.9482791820827288  0.5293342540635422  0.0892268285703111
  0.6368581236964914  0.6879861314321403  0.1592870983823147
  0.7984405808976405  0.7566145814099485  0.3932745809737455
  0.1045421640173245  0.8881298438407228  0.4475861330590547
  0.3152950113802930  0.7401850652616986  0.6344731783924260
  0.5251033124664062  0.8999672119640749  0.8714970915924312
  0.6602991127439779  0.2927638646691904  0.8572797965872851
  0.7987284440683169  0.1264379078843660  0.1423354423147245
  0.1884549265012652  0.2328305250875360  0.6377560556773929
  0.0271646755604564  0.3902659608594163  0.4367250812368866
  0.6030536047268740  0.6166980770618267  0.6159038223044604
  0.5111578795921190  0.1178136403821952  0.0804189829120361
  0.6745707395965042  0.2519051006352697  0.4000330495511122
  0.8911432761129632  0.1082943943072081  0.6173773037173618
  0.9663745388918130  0.5961092516819804  0.6108757740830271
  0.0044056658887044  0.4006185093105401  0.8363078553987791
  0.7990637495711539  0.8259743072300694  0.8499694535563123
  0.5358355799049264  0.0830036237153209  0.6147998480356520
  0.3729388252654786  0.7078521589785325  0.1183018401660263
  0.4754956717711991  0.9049234361362650  0.4273640678788908

             NaN             NaN             NaN
             NaN             NaN             NaN
             NaN             NaN             NaN
             NaN             NaN             NaN
             NaN             NaN             NaN
             NaN             NaN             NaN
             NaN             NaN             NaN
             NaN             NaN             NaN
             NaN             NaN             NaN
             NaN             NaN             NaN
             NaN             NaN             NaN
             NaN             NaN             NaN
             NaN             NaN             NaN
             NaN             NaN             NaN
             NaN             NaN             NaN
             NaN             NaN             NaN
             NaN             NaN             NaN
             NaN             NaN             NaN
             NaN             NaN             NaN
             NaN             NaN             NaN
             NaN             NaN             NaN
             NaN             NaN             NaN
             NaN             NaN             NaN
             NaN             NaN             NaN
             NaN             NaN             NaN
             NaN             NaN             NaN
             NaN             NaN             NaN
             NaN             NaN             NaN
             NaN             NaN             NaN
             NaN             NaN             NaN
             NaN             NaN             NaN
             NaN             NaN             NaN
             NaN             NaN             NaN
             NaN             NaN             NaN
             NaN             NaN             NaN
             NaN             NaN             NaN
             NaN             NaN             NaN
             NaN             NaN             NaN
             NaN             NaN             NaN
             NaN             NaN             NaN
             NaN             NaN             NaN
             NaN             NaN             NaN
             NaN             NaN             NaN
             NaN             NaN             NaN
             NaN             NaN             NaN
             NaN             NaN             NaN
             NaN             NaN             NaN
             NaN             NaN             NaN
             NaN             NaN             NaN
             NaN             NaN             NaN
             NaN             NaN             NaN
             NaN             NaN             NaN
             NaN             NaN             NaN
             NaN             NaN             NaN
             NaN             NaN             NaN
