Na3AlS3 bottleneck NEB image 02
  1.0
     12.1828203277415312      0.0000000000000000      0.0000000000000007
     -0.0000000000000005      7.5674693205415418      1.1970639402156102
      0.0000000000000000      0.0113082934473333     13.7304524371335805
  Na  Al  S
  23  8  24
Direct
  0.9455425609874818  0.0845102975925650  0.8378034538299111
  0.7640132567708885  0.1119191769339645  0.9499397897019572
  0.7979311913218677  0.6069391290620095  0.7058392480786474
  0.7738112981005976  0.0020005717121097  0.4720957041333839
  0.0063708128717865  0.1745900627041659  0.3643236171164713
  0.1670822641651538  0.5246368088158950  0.4374451342494531
  0.9045440422363054  0.4018520583397105  0.2813924043132385
  0.3518821619337394  0.1310638578529536  0.3858873669060799
  0.4738357934301219  0.4301982399000210  0.7003736211710310
  0.2555399285965789  0.5110083097887127  0.9856390751618667
  0.2411877971384720  0.0054628240062627  0.9853570731262760
  0.7536247121560552  0.4571103525294399  0.5155369844802487
  0.1793384037256938  0.4884588269141313  0.2438209685124037
  0.0308358532414086  0.9096846163485008  0.1764662855733798
  0.5869698201411524  0.6201165369595746  0.3430005402909442
  0.3234322134522433  0.9945625441562778  0.7492126243826337
  0.0606984184857723  0.8930565679027407  0.6658025697606175
  0.3147966751110785  0.9964987652617547  0.2449161650656098
  0.1778377807412969  0.4842817878460154  0.7500527171933723
  0.4721551540348064  0.4207583242411271  0.1851736288589434
  0.6769584662956653  0.0015516410166549  0.7459128429506986
  0.6421684673468306  0.5765775130597925  0.9306612128996248
  0.6755229186937199  0.0170221956358117  0.2375125886722451
  0.0031056370858766  0.3266797636751009  0.0693906939784075
  0.0053607717217393  0.3205159085328370  0.5673918255466199
  0.5035413940093848  0.1784456960028508  0.4257251906771158
  0.4878548914001609  0.8324624274965736  0.5703106448897235
  0.5010683261444485  0.1673731186991764  0.9234186974415687
  0.4903487829400472  0.8347088467634132  0.0731650768044229
  0.9859862248565264  0.6691236546097596  0.4245096997764202
  0.9896476621341951  0.6671784349105960  0.9232943769142571
  0.3465079817002524  0.2898454924442082  0.8592559499910963
  0.1640627483396587  0.2117683125119050  0.1219552526559980
  0.3565099549164257  0.3240044827638665  0.3598231394230607
  0.1409762002271236  0.7986071873318727  0.8550890278874009
  0.9981538037284744  0.6158241930834638  0.0925700540531070
  0.6375679560827217  0.6929802986567025  0.1420660105515663
  0.8249221753700462  0.7732585266890445  0.3641823081500802
  0.1313018265832378  0.8268674649224778  0.3638415267567549
  0.3289626712777309  0.7193917164517851  0.6295604429309388
  0.4999727744910550  0.8742393711267558  0.9043302084023349
  0.6546243470345526  0.2925286167924597  0.8593730800503894
  0.8613685957303906  0.1775398330600956  0.1428245873461330
  0.1645114923111546  0.2147331607855508  0.6278299802803904
  0.0079130394444026  0.3852003196990900  0.3976038968863612
  0.6387887317765024  0.6844445186140610  0.6256423838767068
  0.4999568340594360  0.1259913415599470  0.0932247148611466
  0.6650319546088201  0.2811205126710858  0.3660714644635435
  0.8595967487028446  0.1645870337622607  0.6274991244418178
  0.9831268383688115  0.6061570990025975  0.5941271485927951
  0.9935105078573672  0.3771766436602966  0.9000911227690144
  0.8349042774176660  0.7982704419608875  0.8668074500342169
  0.5028476987891510  0.1216873185719038  0.5952145992427746
  0.3304946302619351  0.7164012047144573  0.1258830969827144
  0.4827368076381551  0.8919463846139168  0.4002645086947755
