Na Al S 
 1.0000000000000000
    12.1828203277415312   -0.0000000000000000    0.0000000000000007
    -0.0000000000000005    7.5674693205415418    1.1970639402156102
     0.0000000000000000    0.0113082934473333   13.7304524371335805
 Na  Al  S  
  23   8  24
Direct
  0.9785240777274261  0.0538074882641947  0.7967976994700007
  0.7909269994858955  0.8591664847180444 -0.0258492042392441
  0.7930433582859988  0.5414880725982631  0.7501026764063550
  0.7347595690289352  0.9191558884360138  0.5337933168310013
  0.9095108597988861  0.1026224595694788  0.3851534397316978
  0.2405375915320483  0.5749682624780232  0.4864892667452378
  0.8178921400650160  0.5056072273870764  0.2592355805231777
  0.2647795925883720  0.0726880917523305  0.4862772974114729
  0.7299112691868060  0.4562595654408192 -0.0032119064727566
  0.4143045724628679  0.3883254029587753  0.6373435857789199
  0.2594462251361327  0.5083447719343406  0.9694754846845506
  0.2527487232717435  0.0065263293340464  0.9693076291223109
  0.7605609669819714  0.4156820339694008  0.5339139269910402
  0.1973021885500844  0.4578796310029405  0.2618770956973405
  0.0885448485928221  0.9346045283232018  0.2135627018405963
  0.5863238112990800  0.6074257473464453  0.3750532232339585
  0.3319046489529338  1.0013986390004952  0.7506452836928907
  0.0852149468706026  0.8911050710705134  0.6384235887966531
  0.1742787965011712  0.4937691219712137  0.7514726670562497
  0.4885466277993151  0.4085333501815059  0.2033677645485754
  0.6921183524151991  0.0304734441924055  0.7583673220411072
  0.5191371251607418  0.5846190275557426  0.8017527948688914
  0.6515957776388138 -0.0285590018404146  0.2711786542190712
  0.0003368278190010  0.2802659192859089  0.0230565805988342
  0.0191157362377825  0.3069871096624868  0.5887448463432003
  0.5268425243944719  0.1618431001074513  0.4626126299534043
  0.4801433049861422  0.8168413287035533  0.5775671781860859
  0.5210191832465761  0.1730467680465323  0.9008156501104340
  0.5213095374559145  0.8586735780154328  0.0496481943546872
  0.9705091471608108  0.6719380620301992  0.4646140068147796
  0.9840116627193404  0.7138225904314546  0.8710427964500265
  0.3700428171754431  0.3098675898324692  0.8222184840180883
  0.2197077293301110  0.1569477710214601  0.1200392857377715
  0.4025696738279563  0.3697057220326095  0.4307352403490580
  0.1429013999735727  0.8350109823363433  0.8136515670503173
 -0.0517208179172732  0.5293342540635423  0.0892268285703127
  0.6368581236964913  0.6879861314321378  0.1592870983823166
  0.7984405808976420  0.7566145814099501  0.3932745809737482
  0.1045421640173241  0.8881298438407218  0.4475861330590517
  0.3152950113802943  0.7401850652617009  0.6344731783924241
  0.5251033124664066  0.8999672119640740  0.8714970915924291
  0.6602991127439778  0.2927638646691892  0.8572797965872869
  0.7987284440683183  0.1264379078843642  0.1423354423147229
  0.1884549265012683  0.2328305250875339  0.6377560556773907
  0.0271646755604530  0.3902659608594176  0.4367250812368899
  0.6030536047268750  0.6166980770618268  0.6159038223044621
  0.5111578795921164  0.1178136403821981  0.0804189829120339
  0.6745707395965075  0.2519051006352715  0.4000330495511096
  0.8911432761129604  0.1082943943072056  0.6173773037173582
  0.9663745388918151  0.5961092516819806  0.6108757740830297
  1.0044056658887024  0.4006185093105427  0.8363078553987821
  0.7990637495711562  0.8259743072300706  0.8499694535563116
  0.5358355799049277  0.0830036237153242  0.6147998480356492
  0.3729388252654766  0.7078521589785337  0.1183018401660238
  0.4754956717712022  0.9049234361362617  0.4273640678788925
Cartesian
  0.0000000000000000  0.0000000000000000  0.0000000000000000
  0.0000000000000000  0.0000000000000000  0.0000000000000000
  0.0000000000000000  0.0000000000000000  0.0000000000000000
  0.0000000000000000  0.0000000000000000  0.0000000000000000
  0.0000000000000000  0.0000000000000000  0.0000000000000000
  0.0000000000000000  0.0000000000000000  0.0000000000000000
  0.0000000000000000  0.0000000000000000  0.0000000000000000
  0.0000000000000000  0.0000000000000000  0.0000000000000000
  0.0000000000000000  0.0000000000000000  0.0000000000000000
  0.0000000000000000  0.0000000000000000  0.0000000000000000
  0.0000000000000000  0.0000000000000000  0.0000000000000000
  0.0000000000000000  0.0000000000000000  0.0000000000000000
  0.0000000000000000  0.0000000000000000  0.0000000000000000
  0.0000000000000000  0.0000000000000000  0.0000000000000000
  0.0000000000000000  0.0000000000000000  0.0000000000000000
  0.0000000000000000  0.0000000000000000  0.0000000000000000
  0.0000000000000000  0.0000000000000000  0.0000000000000000
  0.0000000000000000  0.0000000000000000  0.0000000000000000
  0.0000000000000000  0.0000000000000000  0.0000000000000000
  0.0000000000000000  0.0000000000000000  0.0000000000000000
  0.0000000000000000  0.0000000000000000  0.0000000000000000
  0.0000000000000000  0.0000000000000000  0.0000000000000000
  0.0000000000000000  0.0000000000000000  0.0000000000000000
  0.0000000000000000  0.0000000000000000  0.0000000000000000
  0.0000000000000000  0.0000000000000000  0.0000000000000000
  0.0000000000000000  0.0000000000000000  0.0000000000000000
  0.0000000000000000  0.0000000000000000  0.0000000000000000
  0.0000000000000000  0.0000000000000000  0.0000000000000000
  0.0000000000000000  0.0000000000000000  0.0000000000000000
  0.0000000000000000  0.0000000000000000  0.0000000000000000
  0.0000000000000000  0.0000000000000000  0.0000000000000000
  0.0000000000000000  0.0000000000000000  0.0000000000000000
  0.0000000000000000  0.0000000000000000  0.0000000000000000
  0.0000000000000000  0.0000000000000000  0.0000000000000000
  0.0000000000000000  0.0000000000000000  0.0000000000000000
  0.0000000000000000  0.0000000000000000  0.0000000000000000
  0.0000000000000000  0.0000000000000000  0.0000000000000000
  0.0000000000000000  0.0000000000000000  0.0000000000000000
  0.0000000000000000  0.0000000000000000  0.0000000000000000
  0.0000000000000000  0.0000000000000000  0.0000000000000000
  0.0000000000000000  0.0000000000000000  0.0000000000000000
  0.0000000000000000  0.0000000000000000  0.0000000000000000
  0.0000000000000000  0.0000000000000000  0.0000000000000000
  0.0000000000000000  0.0000000000000000  0.0000000000000000
  0.0000000000000000  0.0000000000000000  0.0000000000000000
  0.0000000000000000  0.0000000000000000  0.0000000000000000
  0.0000000000000000  0.0000000000000000  0.0000000000000000
  0.0000000000000000  0.0000000000000000  0.0000000000000000
  0.0000000000000000  0.0000000000000000  0.0000000000000000
  0.0000000000000000  0.0000000000000000  0.0000000000000000
  0.0000000000000000  0.0000000000000000  0.0000000000000000
  0.0000000000000000  0.0000000000000000  0.0000000000000000
  0.0000000000000000  0.0000000000000000  0.0000000000000000
  0.0000000000000000  0.0000000000000000  0.0000000000000000
  0.0000000000000000  0.0000000000000000  0.0000000000000000
