Na Al S 
 1.0000000000000000
    12.1828203277415312    0.0000000000000000    0.0000000000000007
    -0.0000000000000005    7.5674693205415418    1.1970639402156102
     0.0000000000000000    0.0113082934473333   13.7304524371335805
 Na  Al  S  
  23   8  24
Direct
  0.9417797647432522  0.0699927471783167  0.8537773366796642
  0.7495394519526307  0.1563783496514829 -0.0157827335926408
  0.8242945419703916  0.4648237989573870  0.8045609143341277
  0.7282965303475665  1.0408109649687765  0.4877631721649913
  0.9404362919797541  0.0860700899113325  0.3344970395132187
  0.2442783062327348  0.5392180440016064  0.4857570286941109
  0.8228966473977303  0.5044812203797890  0.2251898178820192
  0.2487518825652375  0.0257968378062407  0.4838997989757808
  0.4846667247374680  0.4390866379968839  0.6974793199987563
  0.2451981303002544  0.5197397503591352  0.9927810558863779
  0.2368429879091956 -0.0023972056861335  0.9936984436808282
  0.7760558957473730  0.3595393208833044  0.4768800377000440
  0.1618927245464956  0.5210145750009939  0.2448216572357212
  0.0287103271457306  0.9154457442887542  0.1764424758804220
  0.5828277302499122  0.6242993292097722  0.3333725255440443
  0.3024306558277265  0.1296238836811016  0.7481636039512888
  0.0530568068541877  0.9037982023153379  0.6684714312454598
  0.3061076768861573  0.1488890624650422  0.2322767781521557
  0.1544689831974962  0.5136277259952020  0.7495506123107553
  0.4943647343861977  0.4419567461909714  0.1729307760933926
  0.6778778340039057 -0.0129309181524663  0.7455509524380380
  0.5876388312899521  0.5543865967777024  0.9113530590736754
  0.6773021069164127  0.0068141944407683  0.2346796337488770
 -0.0107215114990465  0.3383677343960914  0.0651737293236162
 -0.0099522871595490  0.3333492596200930  0.5632630621556931
  0.5074571992422814  0.1659137134696517  0.4263329547144998
  0.4636156932264967  0.8724462537357077  0.5605529163215227
  0.5032436548889087  0.1370657393373776  0.9320125719406612
  0.4914282604466032  0.8392675849390527  0.0701356313838414
  0.9980786783571998  0.6758721359317742  0.4078802585744097
  0.7829247292750898  0.6961310690752328  1.0475228340937957
  0.3504070397334514  0.2974072597496006  0.9034213251040514
  0.1373761770603333  0.2082979313191250  0.0969764669271785
  0.3674203753384755  0.3476173942901270  0.3864846248072920
  0.1390167354673552  0.8032368650123398  0.8584758796334332
 -0.0051290845375523  0.6224533685890896  0.0902176312501936
  0.6423110181393697  0.7027950445278243  0.1369908142922462
  0.8296861397421064  0.7926630538654197  0.3387938699053151
  0.1307827341083934  0.8327507712175825  0.3634453592693843
  0.3182489869641942  0.7286837308450009  0.6279416403211040
  0.4673733091679876  0.9170966424356614  0.8954203213763002
  0.6543355382779518  0.2475269693254897  0.8614773855208501
  0.8689702119231241  0.1784616757479767  0.1470541043629512
  0.1372222513219982  0.2122338617198966  0.6063602608756411
  0.0038583311998180  0.3885883042836509  0.3962734432288149
  0.5927539859896658  0.7857635813228349  0.6621788218356922
  0.5074477892861833  0.1216178278273345  0.0851115519777970
  0.6576041589256395  0.2651053335378112  0.3484635031574064
  0.8649799764533261  0.1376902950908699  0.6306615821302377
  0.8405611082397992  0.6441911624142246  0.5959636668271792
 -0.0100022854349598  0.3765772547728028  0.9032822130786943
  0.8715510022800761  0.8686211543279420  0.8330185615367429
  0.5096002910200536  0.1019416646403717  0.5920431831165254
  0.3303740117416852  0.7253239381564122  0.1226838525726905
  0.4782394558176470  0.9021257422740809  0.3927741425758204
Cartesian
  0.0000000000000000  0.0000000000000000  0.0000000000000000
  0.0000000000000000  0.0000000000000000  0.0000000000000000
  0.0000000000000000  0.0000000000000000  0.0000000000000000
  0.0000000000000000  0.0000000000000000  0.0000000000000000
  0.0000000000000000  0.0000000000000000  0.0000000000000000
  0.0000000000000000  0.0000000000000000  0.0000000000000000
  0.0000000000000000  0.0000000000000000  0.0000000000000000
  0.0000000000000000  0.0000000000000000  0.0000000000000000
  0.0000000000000000  0.0000000000000000  0.0000000000000000
  0.0000000000000000  0.0000000000000000  0.0000000000000000
  0.0000000000000000  0.0000000000000000  0.0000000000000000
  0.0000000000000000  0.0000000000000000  0.0000000000000000
  0.0000000000000000  0.0000000000000000  0.0000000000000000
  0.0000000000000000  0.0000000000000000  0.0000000000000000
  0.0000000000000000  0.0000000000000000  0.0000000000000000
  0.0000000000000000  0.0000000000000000  0.0000000000000000
  0.0000000000000000  0.0000000000000000  0.0000000000000000
  0.0000000000000000  0.0000000000000000  0.0000000000000000
  0.0000000000000000  0.0000000000000000  0.0000000000000000
  0.0000000000000000  0.0000000000000000  0.0000000000000000
  0.0000000000000000  0.0000000000000000  0.0000000000000000
  0.0000000000000000  0.0000000000000000  0.0000000000000000
  0.0000000000000000  0.0000000000000000  0.0000000000000000
  0.0000000000000000  0.0000000000000000  0.0000000000000000
  0.0000000000000000  0.0000000000000000  0.0000000000000000
  0.0000000000000000  0.0000000000000000  0.0000000000000000
  0.0000000000000000  0.0000000000000000  0.0000000000000000
  0.0000000000000000  0.0000000000000000  0.0000000000000000
  0.0000000000000000  0.0000000000000000  0.0000000000000000
  0.0000000000000000  0.0000000000000000  0.0000000000000000
  0.0000000000000000  0.0000000000000000  0.0000000000000000
  0.0000000000000000  0.0000000000000000  0.0000000000000000
  0.0000000000000000  0.0000000000000000  0.0000000000000000
  0.0000000000000000  0.0000000000000000  0.0000000000000000
  0.0000000000000000  0.0000000000000000  0.0000000000000000
  0.0000000000000000  0.0000000000000000  0.0000000000000000
  0.0000000000000000  0.0000000000000000  0.0000000000000000
  0.0000000000000000  0.0000000000000000  0.0000000000000000
  0.0000000000000000  0.0000000000000000  0.0000000000000000
  0.0000000000000000  0.0000000000000000  0.0000000000000000
  0.0000000000000000  0.0000000000000000  0.0000000000000000
  0.0000000000000000  0.0000000000000000  0.0000000000000000
  0.0000000000000000  0.0000000000000000  0.0000000000000000
  0.0000000000000000  0.0000000000000000  0.0000000000000000
  0.0000000000000000  0.0000000000000000  0.0000000000000000
  0.0000000000000000  0.0000000000000000  0.0000000000000000
  0.0000000000000000  0.0000000000000000  0.0000000000000000
  0.0000000000000000  0.0000000000000000  0.0000000000000000
  0.0000000000000000  0.0000000000000000  0.0000000000000000
  0.0000000000000000  0.0000000000000000  0.0000000000000000
  0.0000000000000000  0.0000000000000000  0.0000000000000000
  0.0000000000000000  0.0000000000000000  0.0000000000000000
  0.0000000000000000  0.0000000000000000  0.0000000000000000
  0.0000000000000000  0.0000000000000000  0.0000000000000000
  0.0000000000000000  0.0000000000000000  0.0000000000000000
