Na3SbS4_9H2O                            
   1.0000000000000000     
    12.3577914894112926    0.0000000000000000    0.0000000000000000
    -0.0000000000000000   12.3577914894112944    0.0000000000000000
    -0.0000000000000000    0.0000000000000000   12.3577914894112908
   Na   Sb   H    S    O 
    12     4    72    16    36
Direct
  0.2579893936380628  0.2579893936380628  0.2579893936380628
  0.9498033211277601  0.0501966788722399  0.5501966788722399
  0.5501966788722399  0.9498033211277601  0.0501966788722399
  0.5976314475790616  0.5976314475790616  0.5976314475790616
  0.9023685524209384  0.4023685524209384  0.0976314475790616
  0.0976314475790616  0.9023685524209384  0.4023685524209384
  0.4023685524209384  0.0976314475790616  0.9023685524209384
  0.7420106063619372  0.7579893936380628  0.2420106063619372
  0.7579893936380628  0.2420106063619372  0.7420106063619372
  0.2420106063619372  0.7420106063619372  0.7579893936380628
  0.4498033211277601  0.4498033211277601  0.4498033211277601
  0.0501966788722399  0.5501966788722399  0.9498033211277601
  0.0641425815098700  0.0641425815098700  0.0641425815098700
  0.4358574184901300  0.9358574184901300  0.5641425815098700
  0.5641425815098700  0.4358574184901300  0.9358574184901300
  0.9358574184901300  0.5641425815098700  0.4358574184901300
  0.4472395401943601  0.6340635551352207  0.8459732225044547
  0.9472395401943601  0.8659364448647793  0.1540267774955453
  0.5527604598056399  0.1340635551352207  0.6540267774955453
  0.8659364448647793  0.1540267774955453  0.9472395401943601
  0.6540267774955453  0.5527604598056399  0.1340635551352207
  0.1540267774955453  0.9472395401943601  0.8659364448647793
  0.6340635551352207  0.8459732225044547  0.4472395401943601
  0.8459732225044547  0.4472395401943601  0.6340635551352207
  0.1340635551352207  0.6540267774955453  0.5527604598056399
  0.3659364448647793  0.3459732225044547  0.0527604598056399
  0.3459732225044547  0.0527604598056399  0.3659364448647793
  0.0527604598056399  0.3659364448647793  0.3459732225044547
  0.4543158972241486  0.7620195593663013  0.7385118060583480
  0.9543158972241486  0.7379804406336987  0.2614881939416520
  0.5456841027758514  0.2620195593663013  0.7614881939416520
  0.7379804406336987  0.2614881939416520  0.9543158972241486
  0.7614881939416520  0.5456841027758514  0.2620195593663013
  0.2614881939416520  0.9543158972241486  0.7379804406336987
  0.7620195593663013  0.7385118060583480  0.4543158972241486
  0.7385118060583480  0.4543158972241486  0.7620195593663013
  0.2620195593663013  0.7614881939416520  0.5456841027758514
  0.2379804406336987  0.2385118060583480  0.0456841027758514
  0.2385118060583480  0.0456841027758514  0.2379804406336987
  0.0456841027758514  0.2379804406336987  0.2385118060583480
  0.3354862174829591  0.2770934127973632  0.6090821742053336
  0.8354862174829591  0.2229065872026368  0.3909178257946593
  0.6645137825170409  0.7770934127973632  0.8909178257946664
  0.2229065872026368  0.3909178257946593  0.8354862174829591
  0.8909178257946664  0.6645137825170409  0.7770934127973632
  0.3909178257946593  0.8354862174829591  0.2229065872026368
  0.2770934127973632  0.6090821742053336  0.3354862174829591
  0.6090821742053336  0.3354862174829591  0.2770934127973632
  0.7770934127973632  0.8909178257946664  0.6645137825170409
  0.7229065872026368  0.1090821742053407  0.1645137825170409
  0.2019849572574088  0.0758783311473792  0.5687241985095213
  0.1090821742053407  0.1645137825170409  0.7229065872026368
  0.2403775402768602  0.3657105522698600  0.5149335492219080
  0.7403775402768602  0.1342894477301400  0.4850664507780920
  0.7596224597231398  0.8657105522698600  0.9850664507780920
  0.1342894477301400  0.4850664507780920  0.7403775402768602
  0.9850664507780920  0.7596224597231398  0.8657105522698600
  0.4850664507780920  0.7403775402768602  0.1342894477301400
  0.3657105522698600  0.5149335492219080  0.2403775402768602
  0.5149335492219080  0.2403775402768602  0.3657105522698600
  0.8657105522698600  0.9850664507780920  0.7596224597231398
  0.6342894477301400  0.0149335492219080  0.2596224597231398
  0.0149335492219080  0.2596224597231398  0.6342894477301400
  0.2596224597231398  0.6342894477301400  0.0149335492219080
  0.5580300776801721  0.6288389975080477  0.3547228219477034
  0.0580300776801650  0.8711610024919523  0.6452771780522966
  0.4419699223198350  0.1288389975080477  0.1452771780522966
  0.8711610024919523  0.6452771780522966  0.0580300776801650
  0.1452771780522966  0.4419699223198350  0.1288389975080477
  0.6452771780522966  0.0580300776801650  0.8711610024919523
  0.6288389975080477  0.3547228219477034  0.5580300776801721
  0.3547228219477034  0.5580300776801721  0.6288389975080477
  0.1288389975080477  0.1452771780522966  0.4419699223198350
  0.3711610024919523  0.8547228219477034  0.9419699223198279
  0.8547228219477034  0.9419699223198279  0.3711610024919523
  0.9419699223198279  0.3711610024919523  0.8547228219477034
  0.4312758014904787  0.7019849572574088  0.4241216688526137
  0.9312758014904787  0.7980150427425912  0.5758783311473863
  0.5687241985095213  0.2019849572574088  0.0758783311473792
  0.7980150427425912  0.5758783311473863  0.9312758014904787
  0.0758783311473792  0.5687241985095213  0.2019849572574088
  0.5758783311473863  0.9312758014904787  0.7980150427425912
  0.7019849572574088  0.4241216688526137  0.4312758014904787
  0.4241216688526137  0.4312758014904787  0.7019849572574088
  0.0687241985095213  0.2980150427425912  0.9241216688526137
  0.9241216688526137  0.0687241985095213  0.2980150427425912
  0.2980150427425912  0.9241216688526137  0.0687241985095213
  0.1645137825170409  0.7229065872026368  0.1090821742053407
  0.0234070816426737  0.4765929183573263  0.5234070816426737
  0.2438149926609228  0.1462480725518915  0.9583630729292452
  0.5234070816426737  0.0234070816426737  0.4765929183573263
  0.9765929183573263  0.9765929183573263  0.9765929183573263
  0.9583630729292452  0.2438149926609228  0.1462480725518915
  0.1462480725518915  0.9583630729292452  0.2438149926609228
  0.3537519274481085  0.0416369270707548  0.7438149926609228
  0.4583630729292452  0.2561850073390772  0.8537519274481085
  0.8537519274481085  0.4583630729292452  0.2561850073390772
  0.5416369270707548  0.7561850073390772  0.6462480725518915
  0.0416369270707548  0.7438149926609228  0.3537519274481085
  0.6462480725518915  0.5416369270707548  0.7561850073390772
  0.7438149926609228  0.3537519274481085  0.0416369270707548
  0.7561850073390772  0.6462480725518915  0.5416369270707548
  0.4765929183573263  0.5234070816426737  0.0234070816426737
  0.2561850073390772  0.8537519274481085  0.4583630729292452
  0.5033705778117721  0.6828279461142941  0.9266805771549045
  0.0033705778117721  0.8171720538857059  0.0733194228450955
  0.4966294221882279  0.1828279461142941  0.5733194228450955
  0.8171720538857059  0.0733194228450955  0.0033705778117721
  0.5733194228450955  0.4966294221882279  0.1828279461142941
  0.0733194228450955  0.0033705778117721  0.8171720538857059
  0.6828279461142941  0.9266805771549045  0.5033705778117721
  0.9266805771549045  0.5033705778117721  0.6828279461142941
  0.1828279461142941  0.5733194228450955  0.4966294221882279
  0.3171720538857059  0.4266805771549045  0.9966294221882279
  0.4266805771549045  0.9966294221882279  0.3171720538857059
  0.9966294221882279  0.3171720538857059  0.4266805771549045
  0.2911759907976261  0.3513205933953785  0.4157020595939969
  0.7911759907976261  0.1486794066046215  0.5842979404060031
  0.7088240092023739  0.8513205933953785  0.0842979404060031
  0.1486794066046215  0.5842979404060031  0.7911759907976261
  0.0842979404060031  0.7088240092023739  0.8513205933953785
  0.5842979404060031  0.7911759907976261  0.1486794066046215
  0.3513205933953785  0.4157020595939969  0.2911759907976261
  0.4157020595939969  0.2911759907976261  0.3513205933953785
  0.8513205933953785  0.0842979404060031  0.7088240092023739
  0.6486794066046215  0.9157020595939969  0.2088240092023739
  0.9157020595939969  0.2088240092023739  0.6486794066046215
  0.2088240092023739  0.6486794066046215  0.9157020595939969
  0.4203573969051462  0.6308396420307929  0.5141533171925019
  0.9203573969051462  0.8691603579692071  0.4858466828074981
  0.5796426030948538  0.1308396420307929  0.9858466828074981
  0.8691603579692071  0.4858466828074981  0.9203573969051462
  0.9858466828074981  0.5796426030948538  0.1308396420307929
  0.4858466828074981  0.9203573969051462  0.8691603579692071
  0.6308396420307929  0.5141533171925019  0.4203573969051462
  0.5141533171925019  0.4203573969051462  0.6308396420307929
  0.1308396420307929  0.9858466828074981  0.5796426030948538
  0.3691603579692071  0.0141533171925019  0.0796426030948538
  0.0141533171925019  0.0796426030948538  0.3691603579692071
  0.0796426030948538  0.3691603579692071  0.0141533171925019

  0.00000000E+00  0.00000000E+00  0.00000000E+00
  0.00000000E+00  0.00000000E+00  0.00000000E+00
  0.00000000E+00  0.00000000E+00  0.00000000E+00
  0.00000000E+00  0.00000000E+00  0.00000000E+00
  0.00000000E+00  0.00000000E+00  0.00000000E+00
  0.00000000E+00  0.00000000E+00  0.00000000E+00
  0.00000000E+00  0.00000000E+00  0.00000000E+00
  0.00000000E+00  0.00000000E+00  0.00000000E+00
  0.00000000E+00  0.00000000E+00  0.00000000E+00
  0.00000000E+00  0.00000000E+00  0.00000000E+00
  0.00000000E+00  0.00000000E+00  0.00000000E+00
  0.00000000E+00  0.00000000E+00  0.00000000E+00
  0.00000000E+00  0.00000000E+00  0.00000000E+00
  0.00000000E+00  0.00000000E+00  0.00000000E+00
  0.00000000E+00  0.00000000E+00  0.00000000E+00
  0.00000000E+00  0.00000000E+00  0.00000000E+00
  0.00000000E+00  0.00000000E+00  0.00000000E+00
  0.00000000E+00  0.00000000E+00  0.00000000E+00
  0.00000000E+00  0.00000000E+00  0.00000000E+00
  0.00000000E+00  0.00000000E+00  0.00000000E+00
  0.00000000E+00  0.00000000E+00  0.00000000E+00
  0.00000000E+00  0.00000000E+00  0.00000000E+00
  0.00000000E+00  0.00000000E+00  0.00000000E+00
  0.00000000E+00  0.00000000E+00  0.00000000E+00
  0.00000000E+00  0.00000000E+00  0.00000000E+00
  0.00000000E+00  0.00000000E+00  0.00000000E+00
  0.00000000E+00  0.00000000E+00  0.00000000E+00
  0.00000000E+00  0.00000000E+00  0.00000000E+00
  0.00000000E+00  0.00000000E+00  0.00000000E+00
  0.00000000E+00  0.00000000E+00  0.00000000E+00
  0.00000000E+00  0.00000000E+00  0.00000000E+00
  0.00000000E+00  0.00000000E+00  0.00000000E+00
  0.00000000E+00  0.00000000E+00  0.00000000E+00
  0.00000000E+00  0.00000000E+00  0.00000000E+00
  0.00000000E+00  0.00000000E+00  0.00000000E+00
  0.00000000E+00  0.00000000E+00  0.00000000E+00
  0.00000000E+00  0.00000000E+00  0.00000000E+00
  0.00000000E+00  0.00000000E+00  0.00000000E+00
  0.00000000E+00  0.00000000E+00  0.00000000E+00
  0.00000000E+00  0.00000000E+00  0.00000000E+00
  0.00000000E+00  0.00000000E+00  0.00000000E+00
  0.00000000E+00  0.00000000E+00  0.00000000E+00
  0.00000000E+00  0.00000000E+00  0.00000000E+00
  0.00000000E+00  0.00000000E+00  0.00000000E+00
  0.00000000E+00  0.00000000E+00  0.00000000E+00
  0.00000000E+00  0.00000000E+00  0.00000000E+00
  0.00000000E+00  0.00000000E+00  0.00000000E+00
  0.00000000E+00  0.00000000E+00  0.00000000E+00
  0.00000000E+00  0.00000000E+00  0.00000000E+00
  0.00000000E+00  0.00000000E+00  0.00000000E+00
  0.00000000E+00  0.00000000E+00  0.00000000E+00
  0.00000000E+00  0.00000000E+00  0.00000000E+00
  0.00000000E+00  0.00000000E+00  0.00000000E+00
  0.00000000E+00  0.00000000E+00  0.00000000E+00
  0.00000000E+00  0.00000000E+00  0.00000000E+00
  0.00000000E+00  0.00000000E+00  0.00000000E+00
  0.00000000E+00  0.00000000E+00  0.00000000E+00
  0.00000000E+00  0.00000000E+00  0.00000000E+00
  0.00000000E+00  0.00000000E+00  0.00000000E+00
  0.00000000E+00  0.00000000E+00  0.00000000E+00
  0.00000000E+00  0.00000000E+00  0.00000000E+00
  0.00000000E+00  0.00000000E+00  0.00000000E+00
  0.00000000E+00  0.00000000E+00  0.00000000E+00
  0.00000000E+00  0.00000000E+00  0.00000000E+00
  0.00000000E+00  0.00000000E+00  0.00000000E+00
  0.00000000E+00  0.00000000E+00  0.00000000E+00
  0.00000000E+00  0.00000000E+00  0.00000000E+00
  0.00000000E+00  0.00000000E+00  0.00000000E+00
  0.00000000E+00  0.00000000E+00  0.00000000E+00
  0.00000000E+00  0.00000000E+00  0.00000000E+00
  0.00000000E+00  0.00000000E+00  0.00000000E+00
  0.00000000E+00  0.00000000E+00  0.00000000E+00
  0.00000000E+00  0.00000000E+00  0.00000000E+00
  0.00000000E+00  0.00000000E+00  0.00000000E+00
  0.00000000E+00  0.00000000E+00  0.00000000E+00
  0.00000000E+00  0.00000000E+00  0.00000000E+00
  0.00000000E+00  0.00000000E+00  0.00000000E+00
  0.00000000E+00  0.00000000E+00  0.00000000E+00
  0.00000000E+00  0.00000000E+00  0.00000000E+00
  0.00000000E+00  0.00000000E+00  0.00000000E+00
  0.00000000E+00  0.00000000E+00  0.00000000E+00
  0.00000000E+00  0.00000000E+00  0.00000000E+00
  0.00000000E+00  0.00000000E+00  0.00000000E+00
  0.00000000E+00  0.00000000E+00  0.00000000E+00
  0.00000000E+00  0.00000000E+00  0.00000000E+00
  0.00000000E+00  0.00000000E+00  0.00000000E+00
  0.00000000E+00  0.00000000E+00  0.00000000E+00
  0.00000000E+00  0.00000000E+00  0.00000000E+00
  0.00000000E+00  0.00000000E+00  0.00000000E+00
  0.00000000E+00  0.00000000E+00  0.00000000E+00
  0.00000000E+00  0.00000000E+00  0.00000000E+00
  0.00000000E+00  0.00000000E+00  0.00000000E+00
  0.00000000E+00  0.00000000E+00  0.00000000E+00
  0.00000000E+00  0.00000000E+00  0.00000000E+00
  0.00000000E+00  0.00000000E+00  0.00000000E+00
  0.00000000E+00  0.00000000E+00  0.00000000E+00
  0.00000000E+00  0.00000000E+00  0.00000000E+00
  0.00000000E+00  0.00000000E+00  0.00000000E+00
  0.00000000E+00  0.00000000E+00  0.00000000E+00
  0.00000000E+00  0.00000000E+00  0.00000000E+00
  0.00000000E+00  0.00000000E+00  0.00000000E+00
  0.00000000E+00  0.00000000E+00  0.00000000E+00
  0.00000000E+00  0.00000000E+00  0.00000000E+00
  0.00000000E+00  0.00000000E+00  0.00000000E+00
  0.00000000E+00  0.00000000E+00  0.00000000E+00
  0.00000000E+00  0.00000000E+00  0.00000000E+00
  0.00000000E+00  0.00000000E+00  0.00000000E+00
  0.00000000E+00  0.00000000E+00  0.00000000E+00
  0.00000000E+00  0.00000000E+00  0.00000000E+00
  0.00000000E+00  0.00000000E+00  0.00000000E+00
  0.00000000E+00  0.00000000E+00  0.00000000E+00
  0.00000000E+00  0.00000000E+00  0.00000000E+00
  0.00000000E+00  0.00000000E+00  0.00000000E+00
  0.00000000E+00  0.00000000E+00  0.00000000E+00
  0.00000000E+00  0.00000000E+00  0.00000000E+00
  0.00000000E+00  0.00000000E+00  0.00000000E+00
  0.00000000E+00  0.00000000E+00  0.00000000E+00
  0.00000000E+00  0.00000000E+00  0.00000000E+00
  0.00000000E+00  0.00000000E+00  0.00000000E+00
  0.00000000E+00  0.00000000E+00  0.00000000E+00
  0.00000000E+00  0.00000000E+00  0.00000000E+00
  0.00000000E+00  0.00000000E+00  0.00000000E+00
  0.00000000E+00  0.00000000E+00  0.00000000E+00
  0.00000000E+00  0.00000000E+00  0.00000000E+00
  0.00000000E+00  0.00000000E+00  0.00000000E+00
  0.00000000E+00  0.00000000E+00  0.00000000E+00
  0.00000000E+00  0.00000000E+00  0.00000000E+00
  0.00000000E+00  0.00000000E+00  0.00000000E+00
  0.00000000E+00  0.00000000E+00  0.00000000E+00
  0.00000000E+00  0.00000000E+00  0.00000000E+00
  0.00000000E+00  0.00000000E+00  0.00000000E+00
  0.00000000E+00  0.00000000E+00  0.00000000E+00
  0.00000000E+00  0.00000000E+00  0.00000000E+00
  0.00000000E+00  0.00000000E+00  0.00000000E+00
  0.00000000E+00  0.00000000E+00  0.00000000E+00
  0.00000000E+00  0.00000000E+00  0.00000000E+00
  0.00000000E+00  0.00000000E+00  0.00000000E+00
  0.00000000E+00  0.00000000E+00  0.00000000E+00
  0.00000000E+00  0.00000000E+00  0.00000000E+00
  0.00000000E+00  0.00000000E+00  0.00000000E+00
