Na3SbS4_yaosen
1.0
  8.7460000000  0.0000000000  0.0000000000
  0.0000000000  13.1683000000  0.0000000000
  -3.1950102229  0.0000000000  13.5337793434
  Na  Sb  S  O  H
  4  1  4  8  16
Direct
  0.5000000000  0.0000000000  0.5000000000
  0.0000000000  0.0000000000  0.0000000000
  0.1710000000  0.5660000000  0.0850000000
  0.6570000000  0.0468000000  0.0840000000
  0.2821000000  0.1696000000  0.2501000000
  0.2070000000  -0.0004000000  0.2087000000
  0.4048000000  0.1882000000  0.4243000000
  0.4686000000  0.2118000000  0.1597000000
  0.0750000000  0.2811000000  0.2178000000
  0.0911900000  0.3897700000  0.0008600000
  0.1460500000  0.5193300000  0.2508500000
  0.1488800000  0.6501900000  0.4662700000
  0.1952700000  0.3966300000  0.4591400000
  0.2118900000  0.7343200000  0.1490100000
  0.4090000000  0.4603400000  0.1453600000
  0.5309300000  0.4268800000  0.4108600000
  0.7393100000  0.4023600000  0.0655000000
  0.0467400000  0.5348600000  0.2669900000
  0.0753200000  0.6903900000  0.4180300000
  0.0959900000  0.3500700000  0.0606100000
  0.1380700000  0.7453400000  0.1904200000
  0.1468100000  0.4453700000  0.2519400000
  0.1679900000  0.1398900000  0.4688100000
  0.1739100000  0.8093800000  0.1026600000
  0.1766700000  0.3477900000  0.4050500000
  0.2589200000  0.1409900000  0.1014300000
  0.4111500000  0.3863900000  0.1462100000
  0.5020800000  0.4794200000  0.1949200000
  0.4954800000  0.3574900000  0.3951300000
  0.6064900000  0.4430800000  0.3719200000
  0.6864600000  0.2324500000  0.3048000000
  0.7114500000  0.3320400000  0.0747200000
  0.7735200000  0.4301100000  0.1319500000
