                                        
   1.0000000000000000     
     8.3407774932627206    0.0000000000000000   -0.0067228787581434
     0.0000000000000000   12.5720365237523133    0.0000000000000000
    -3.0559332976520408    0.0000000000000000   12.8920116972305330
   Na   Sb   S    O    H 
    12     4    16    32    64
Direct
  0.5000000000000000 -0.0000000000000000  0.5000000000000000
  0.5000000000000000  0.5000000000000000  0.0000000000000000
 -0.0000000000000000 -0.0000000000000000  0.0000000000000000
 -0.0000000000000000  0.5000000000000000  0.5000000000000000
  0.1686144875261300  0.5584567625617370  0.0849710363115273
  0.8313855124738695  0.4415432374382630  0.9150289636884723
  0.8313855124738695  0.0584567625617370  0.4150289636884728
  0.1686144875261300  0.9415432374382630  0.5849710363115277
  0.6648239508185563  0.0508368730126756  0.0873239924620955
  0.3351760491814438  0.9491631269873244  0.9126760075379043
  0.3351760491814438  0.5508368730126756  0.4126760075379043
  0.6648239508185564  0.4491631269873245  0.5873239924620957
  0.2894158760785513  0.1677108616779437  0.2508014214901865
  0.7105841239214484  0.8322891383220562  0.7491985785098134
  0.7105841239214484  0.6677108616779438  0.2491985785098137
  0.2894158760785514  0.3322891383220565  0.7508014214901866
  0.2040081658273506  0.9910090732795758  0.2101954561560492
  0.7959918341726502  0.0089909267204243  0.7898045438439503
  0.7959918341726502  0.4910090732795757  0.2898045438439510
  0.2040081658273506  0.5089909267204242  0.7101954561560497
  0.4056334763413484  0.1942137253267706  0.4254109676572247
  0.5943665236586515  0.8057862746732293  0.5745890323427751
  0.5943665236586515  0.6942137253267707  0.0745890323427749
  0.4056334763413483  0.3057862746732297  0.9254109676572249
  0.4794506640141714  0.2139785493512799  0.1529345342929054
  0.5205493359858278  0.7860214506487199  0.8470654657070944
  0.5205493359858278  0.7139785493512801  0.3470654657070950
  0.4794506640141714  0.2860214506487200  0.6529345342929056
  0.0609617755133285  0.2820897257979980  0.2152094725801615
  0.9390382244866714  0.7179102742020017  0.7847905274198385
  0.9390382244866714  0.7820897257979983  0.2847905274198388
  0.0609617755133285  0.2179102742020019  0.7152094725801615
  0.0947662528408767  0.3872115430662348  0.0015950920401039
  0.9052337471591227  0.6127884569337647 -0.0015950920401039
  0.9052337471591227  0.8872115430662353  0.4984049079598959
  0.0947662528408767  0.1127884569337653  0.5015950920401036
  0.1485111044298025  0.5222846890438246  0.2547261423364949
  0.8514888955701976  0.4777153109561749  0.7452738576635046
  0.8514888955701976  0.0222846890438251  0.2452738576635047
  0.1485111044298025  0.9777153109561754  0.7547261423364954
  0.1505671954818597  0.6573848715811723  0.4712484449950625
  0.8494328045181403  0.3426151284188275  0.5287515550049376
  0.8494328045181403  0.1573848715811725  0.0287515550049373
  0.1505671954818597  0.8426151284188276  0.9712484449950624
  0.2020278263787600  0.3948034894106330  0.4657515129920606
  0.7979721736212400  0.6051965105893671  0.5342484870079387
  0.7979721736212400  0.8948034894106329  0.0342484870079394
  0.2020278263787600  0.1051965105893669  0.9657515129920613
  0.2071528024891026  0.7347115966770954  0.1520013206867612
  0.7928471975108967  0.2652884033229047  0.8479986793132391
  0.7928471975108967  0.2347115966770952  0.3479986793132385
  0.2071528024891026  0.7652884033229046  0.6520013206867609
  0.4120983920742672  0.4571705038491802  0.1525046714422794
  0.5879016079257322  0.5428294961508198  0.8474953285577203
  0.5879016079257322  0.9571705038491802  0.3474953285577208
  0.4120983920742672  0.0428294961508197  0.6525046714422797
  0.5291418877565782  0.4254571916514745  0.4074842351799560
  0.4708581122434222  0.5745428083485253  0.5925157648200439
  0.4708581122434222  0.9254571916514747  0.0925157648200439
  0.5291418877565782  0.0745428083485255  0.9074842351799561
  0.7447448762618442  0.3994815616289190  0.0652995884951896
  0.2552551237381561  0.6005184383710802  0.9347004115048104
  0.2552551237381561  0.8994815616289198  0.4347004115048102
  0.7447448762618442  0.1005184383710806  0.5652995884951896
  0.0356779065003971  0.5264452183788264  0.2667840605503094
  0.9643220934996027  0.4735547816211738  0.7332159394496905
  0.9643220934996027  0.0264452183788260  0.2332159394496903
  0.0356779065003971  0.9735547816211736  0.7667840605503095
  0.0744687745750470  0.7009027689294435  0.4187173705160534
  0.9255312254249528  0.2990972310705569  0.5812826294839458
  0.9255312254249528  0.2009027689294432  0.0812826294839463
  0.0744687745750470  0.7990972310705565  0.9187173705160542
  0.0893258394943576  0.3446068740664835  0.0635079646741626
  0.9106741605056426  0.6553931259335162  0.9364920353258369
  0.9106741605056426  0.8446068740664838  0.4364920353258377
  0.0893258394943576  0.1553931259335165  0.5635079646741631
  0.1181780717702626  0.7429252861971483  0.1896424575780579
  0.8818219282297375  0.2570747138028516  0.8103575424219422
  0.8818219282297375  0.2429252861971486  0.3103575424219420
  0.1181780717702626  0.7570747138028517  0.6896424575780578
  0.1596893978545878  0.4447060365362149  0.2452228251620722
  0.8403106021454121  0.5552939634637858  0.7547771748379279
  0.8403106021454121  0.9447060365362142  0.2547771748379278
  0.1596893978545878  0.0552939634637854  0.7452228251620721
  0.1874747504164560  0.1433084260376070  0.4757131200694751
  0.8125252495835438  0.8566915739623930  0.5242868799305251
  0.8125252495835438  0.6433084260376070  0.0242868799305249
  0.1874747504164560  0.3566915739623933  0.9757131200694749
  0.1708975056393990  0.8026867996559623  0.0379776864965185
  0.8291024943606013  0.1973132003440375  0.9620223135034816
  0.8291024943606013  0.3026867996559625  0.4620223135034815
  0.1708975056393990  0.6973132003440377  0.5379776864965184
  0.1835769279259212  0.3443042863455363  0.4078054524788506
  0.8164230720740787  0.6556957136544638  0.5921945475211489
  0.8164230720740787  0.8443042863455362  0.0921945475211492
  0.1835769279259211  0.1556957136544639  0.9078054524788511
  0.2880576731518975  0.1401508431300671  0.0195722399207149
  0.7119423268481024  0.8598491568699328  0.9804277600792846
  0.7119423268481024  0.6401508431300672  0.4804277600792852
  0.2880576731518975  0.3598491568699330  0.5195722399207153
  0.4155438292502918  0.3780813035868271  0.1491623678589530
  0.5844561707497080  0.6219186964131723  0.8508376321410539
  0.5844561707497080  0.8780813035868277  0.3508376321410470
  0.4155438292502918  0.1219186964131727  0.6491623678589461
  0.5062086641914831  0.4727240752363770  0.2103014670097652
  0.4937913358085166  0.5272759247636229  0.7896985329902345
  0.4937913358085166  0.9727240752363771  0.2896985329902348
  0.5062086641914831  0.0272759247636231  0.7103014670097655
  0.4994739813928334  0.3489194634065384  0.4040842812498955
  0.5005260186071667  0.6510805365934619  0.5959157187501046
  0.5005260186071667  0.8489194634065381  0.0959157187501044
  0.4994739813928334  0.1510805365934616  0.9040842812498954
  0.6198431479718388  0.4342021941966375  0.3715816598777313
  0.3801568520281612  0.5657978058033636  0.6284183401222678
  0.3801568520281612  0.9342021941966364  0.1284183401222684
  0.6198431479718388  0.0657978058033629  0.8715816598777322
  0.6899822389613084  0.2334607165383052  0.2927412431011852
  0.3100177610386922  0.7665392834616940  0.7072587568988153
  0.3100177610386922  0.7334607165383060  0.2072587568988144
  0.6899822389613084  0.2665392834616946  0.7927412431011847
  0.7113894123180208  0.3253333744161262  0.0679034212124827
  0.2886105876819787  0.6746666255838737  0.9320965787875171
  0.2886105876819787  0.8253333744161263  0.4320965787875176
  0.7113894123180208  0.1746666255838737  0.5679034212124829
  0.7748077194712570  0.4239574060970919  0.1385259092114836
  0.2251922805287432  0.5760425939029080  0.8614740907885170
  0.2251922805287432  0.9239574060970920  0.3614740907885166
  0.7748077194712570  0.0760425939029080  0.6385259092114830

  0.00000000E+00  0.00000000E+00  0.00000000E+00
  0.00000000E+00  0.00000000E+00  0.00000000E+00
  0.00000000E+00  0.00000000E+00  0.00000000E+00
  0.00000000E+00  0.00000000E+00  0.00000000E+00
  0.00000000E+00  0.00000000E+00  0.00000000E+00
  0.00000000E+00  0.00000000E+00  0.00000000E+00
  0.00000000E+00  0.00000000E+00  0.00000000E+00
  0.00000000E+00  0.00000000E+00  0.00000000E+00
  0.00000000E+00  0.00000000E+00  0.00000000E+00
  0.00000000E+00  0.00000000E+00  0.00000000E+00
  0.00000000E+00  0.00000000E+00  0.00000000E+00
  0.00000000E+00  0.00000000E+00  0.00000000E+00
  0.00000000E+00  0.00000000E+00  0.00000000E+00
  0.00000000E+00  0.00000000E+00  0.00000000E+00
  0.00000000E+00  0.00000000E+00  0.00000000E+00
  0.00000000E+00  0.00000000E+00  0.00000000E+00
  0.00000000E+00  0.00000000E+00  0.00000000E+00
  0.00000000E+00  0.00000000E+00  0.00000000E+00
  0.00000000E+00  0.00000000E+00  0.00000000E+00
  0.00000000E+00  0.00000000E+00  0.00000000E+00
  0.00000000E+00  0.00000000E+00  0.00000000E+00
  0.00000000E+00  0.00000000E+00  0.00000000E+00
  0.00000000E+00  0.00000000E+00  0.00000000E+00
  0.00000000E+00  0.00000000E+00  0.00000000E+00
  0.00000000E+00  0.00000000E+00  0.00000000E+00
  0.00000000E+00  0.00000000E+00  0.00000000E+00
  0.00000000E+00  0.00000000E+00  0.00000000E+00
  0.00000000E+00  0.00000000E+00  0.00000000E+00
  0.00000000E+00  0.00000000E+00  0.00000000E+00
  0.00000000E+00  0.00000000E+00  0.00000000E+00
  0.00000000E+00  0.00000000E+00  0.00000000E+00
  0.00000000E+00  0.00000000E+00  0.00000000E+00
  0.00000000E+00  0.00000000E+00  0.00000000E+00
  0.00000000E+00  0.00000000E+00  0.00000000E+00
  0.00000000E+00  0.00000000E+00  0.00000000E+00
  0.00000000E+00  0.00000000E+00  0.00000000E+00
  0.00000000E+00  0.00000000E+00  0.00000000E+00
  0.00000000E+00  0.00000000E+00  0.00000000E+00
  0.00000000E+00  0.00000000E+00  0.00000000E+00
  0.00000000E+00  0.00000000E+00  0.00000000E+00
  0.00000000E+00  0.00000000E+00  0.00000000E+00
  0.00000000E+00  0.00000000E+00  0.00000000E+00
  0.00000000E+00  0.00000000E+00  0.00000000E+00
  0.00000000E+00  0.00000000E+00  0.00000000E+00
  0.00000000E+00  0.00000000E+00  0.00000000E+00
  0.00000000E+00  0.00000000E+00  0.00000000E+00
  0.00000000E+00  0.00000000E+00  0.00000000E+00
  0.00000000E+00  0.00000000E+00  0.00000000E+00
  0.00000000E+00  0.00000000E+00  0.00000000E+00
  0.00000000E+00  0.00000000E+00  0.00000000E+00
  0.00000000E+00  0.00000000E+00  0.00000000E+00
  0.00000000E+00  0.00000000E+00  0.00000000E+00
  0.00000000E+00  0.00000000E+00  0.00000000E+00
  0.00000000E+00  0.00000000E+00  0.00000000E+00
  0.00000000E+00  0.00000000E+00  0.00000000E+00
  0.00000000E+00  0.00000000E+00  0.00000000E+00
  0.00000000E+00  0.00000000E+00  0.00000000E+00
  0.00000000E+00  0.00000000E+00  0.00000000E+00
  0.00000000E+00  0.00000000E+00  0.00000000E+00
  0.00000000E+00  0.00000000E+00  0.00000000E+00
  0.00000000E+00  0.00000000E+00  0.00000000E+00
  0.00000000E+00  0.00000000E+00  0.00000000E+00
  0.00000000E+00  0.00000000E+00  0.00000000E+00
  0.00000000E+00  0.00000000E+00  0.00000000E+00
  0.00000000E+00  0.00000000E+00  0.00000000E+00
  0.00000000E+00  0.00000000E+00  0.00000000E+00
  0.00000000E+00  0.00000000E+00  0.00000000E+00
  0.00000000E+00  0.00000000E+00  0.00000000E+00
  0.00000000E+00  0.00000000E+00  0.00000000E+00
  0.00000000E+00  0.00000000E+00  0.00000000E+00
  0.00000000E+00  0.00000000E+00  0.00000000E+00
  0.00000000E+00  0.00000000E+00  0.00000000E+00
  0.00000000E+00  0.00000000E+00  0.00000000E+00
  0.00000000E+00  0.00000000E+00  0.00000000E+00
  0.00000000E+00  0.00000000E+00  0.00000000E+00
  0.00000000E+00  0.00000000E+00  0.00000000E+00
  0.00000000E+00  0.00000000E+00  0.00000000E+00
  0.00000000E+00  0.00000000E+00  0.00000000E+00
  0.00000000E+00  0.00000000E+00  0.00000000E+00
  0.00000000E+00  0.00000000E+00  0.00000000E+00
  0.00000000E+00  0.00000000E+00  0.00000000E+00
  0.00000000E+00  0.00000000E+00  0.00000000E+00
  0.00000000E+00  0.00000000E+00  0.00000000E+00
  0.00000000E+00  0.00000000E+00  0.00000000E+00
  0.00000000E+00  0.00000000E+00  0.00000000E+00
  0.00000000E+00  0.00000000E+00  0.00000000E+00
  0.00000000E+00  0.00000000E+00  0.00000000E+00
  0.00000000E+00  0.00000000E+00  0.00000000E+00
  0.00000000E+00  0.00000000E+00  0.00000000E+00
  0.00000000E+00  0.00000000E+00  0.00000000E+00
  0.00000000E+00  0.00000000E+00  0.00000000E+00
  0.00000000E+00  0.00000000E+00  0.00000000E+00
  0.00000000E+00  0.00000000E+00  0.00000000E+00
  0.00000000E+00  0.00000000E+00  0.00000000E+00
  0.00000000E+00  0.00000000E+00  0.00000000E+00
  0.00000000E+00  0.00000000E+00  0.00000000E+00
  0.00000000E+00  0.00000000E+00  0.00000000E+00
  0.00000000E+00  0.00000000E+00  0.00000000E+00
  0.00000000E+00  0.00000000E+00  0.00000000E+00
  0.00000000E+00  0.00000000E+00  0.00000000E+00
  0.00000000E+00  0.00000000E+00  0.00000000E+00
  0.00000000E+00  0.00000000E+00  0.00000000E+00
  0.00000000E+00  0.00000000E+00  0.00000000E+00
  0.00000000E+00  0.00000000E+00  0.00000000E+00
  0.00000000E+00  0.00000000E+00  0.00000000E+00
  0.00000000E+00  0.00000000E+00  0.00000000E+00
  0.00000000E+00  0.00000000E+00  0.00000000E+00
  0.00000000E+00  0.00000000E+00  0.00000000E+00
  0.00000000E+00  0.00000000E+00  0.00000000E+00
  0.00000000E+00  0.00000000E+00  0.00000000E+00
  0.00000000E+00  0.00000000E+00  0.00000000E+00
  0.00000000E+00  0.00000000E+00  0.00000000E+00
  0.00000000E+00  0.00000000E+00  0.00000000E+00
  0.00000000E+00  0.00000000E+00  0.00000000E+00
  0.00000000E+00  0.00000000E+00  0.00000000E+00
  0.00000000E+00  0.00000000E+00  0.00000000E+00
  0.00000000E+00  0.00000000E+00  0.00000000E+00
  0.00000000E+00  0.00000000E+00  0.00000000E+00
  0.00000000E+00  0.00000000E+00  0.00000000E+00
  0.00000000E+00  0.00000000E+00  0.00000000E+00
  0.00000000E+00  0.00000000E+00  0.00000000E+00
  0.00000000E+00  0.00000000E+00  0.00000000E+00
  0.00000000E+00  0.00000000E+00  0.00000000E+00
  0.00000000E+00  0.00000000E+00  0.00000000E+00
  0.00000000E+00  0.00000000E+00  0.00000000E+00
  0.00000000E+00  0.00000000E+00  0.00000000E+00
  0.00000000E+00  0.00000000E+00  0.00000000E+00
  0.00000000E+00  0.00000000E+00  0.00000000E+00
