pymatgen with grid density = 600 / number of atoms
0
Gamma
1 3 1
