JVASP-12818_Na5InS4 NEB image 05        
   1.0000000000000000     
     6.8330688911791304    0.0000000000000000   -0.1272470229470229
    -0.0000000000000010   17.6718505513838551    0.0000000000000010
    -0.0048172062806638    0.0000000000000000    7.8804846921668430
   Na   In   S 
    19     4    16
Direct
  0.3851178044387922  0.3558469365958530  0.8101614179291659
  0.3435793262832050  0.0100816195751321  0.3350465132934275
  0.3435793262832050  0.2399183804248679  0.3350465132934275
  0.6564206737167950  0.4899183804248679  0.6649534867065725
  0.9749322541146199  0.1250000000000000  0.5287792724043001
  0.0250677458853801  0.3750000000000000  0.4712207275956999
  0.6691427694168155  0.1250000000000000  0.1607969958263098
  0.0000000000000000  0.0000000000000000  0.0000000000000000
  0.0000000000000000  0.2500000000000000  0.0000000000000000
  0.6564206737167950  0.7600816195751321  0.6649534867065725
  0.3435793262832050  0.5100816195751321  0.3350465132934275
  0.3435793262832050  0.7399183804248679  0.3350465132934275
  0.6564206737167950  0.9899183804248679  0.6649534867065725
  0.9749322541146199  0.6250000000000000  0.5287792724043001
  0.0250677458853801  0.8750000000000000  0.4712207275956999
  0.6691427694168155  0.6250000000000000  0.1607969958263098
  0.3308572305831845  0.8750000000000000  0.8392030041736902
  0.0000000000000000  0.5000000000000000  0.0000000000000000
  0.0000000000000000  0.7500000000000000  0.0000000000000000
  0.6385400052884265  0.3750000000000000  0.1764359578024539
  0.3614599947115735  0.1250000000000000  0.8235640421975461
  0.6385400052884265  0.8750000000000000  0.1764359578024539
  0.3614599947115735  0.6250000000000000  0.8235640421975461
  0.7605656723461891  0.3750000000000000  0.8800385414340752
  0.2394343276538109  0.1250000000000000  0.1199614585659248
  0.2331814499801936  0.0095027621715360  0.6716689785082650
  0.7668185500198064  0.2595027621715360  0.3283310214917350
  0.7668185500198064  0.4904972378284640  0.3283310214917350
  0.2331814499801936  0.2404972378284640  0.6716689785082650
  0.7285168624784717  0.1250000000000000  0.8214930948932277
  0.2714831375215283  0.3750000000000000  0.1785069051067723
  0.7605656723461891  0.8750000000000000  0.8800385414340752
  0.2394343276538109  0.6250000000000000  0.1199614585659248
  0.2331814499801936  0.5095027621715360  0.6716689785082650
  0.7668185500198064  0.7595027621715360  0.3283310214917350
  0.7668185500198064  0.9904972378284640  0.3283310214917350
  0.2331814499801936  0.7404972378284640  0.6716689785082650
  0.7285168624784717  0.6250000000000000  0.8214930948932277
  0.2714831375215283  0.8750000000000000  0.1785069051067723

             NaN             NaN             NaN
             NaN             NaN             NaN
             NaN             NaN             NaN
             NaN             NaN             NaN
             NaN             NaN             NaN
             NaN             NaN             NaN
             NaN             NaN             NaN
             NaN             NaN             NaN
             NaN             NaN             NaN
             NaN             NaN             NaN
             NaN             NaN             NaN
             NaN             NaN             NaN
             NaN             NaN             NaN
             NaN             NaN             NaN
             NaN             NaN             NaN
             NaN             NaN             NaN
             NaN             NaN             NaN
             NaN             NaN             NaN
             NaN             NaN             NaN
             NaN             NaN             NaN
             NaN             NaN             NaN
             NaN             NaN             NaN
             NaN             NaN             NaN
             NaN             NaN             NaN
             NaN             NaN             NaN
             NaN             NaN             NaN
             NaN             NaN             NaN
             NaN             NaN             NaN
             NaN             NaN             NaN
             NaN             NaN             NaN
             NaN             NaN             NaN
             NaN             NaN             NaN
             NaN             NaN             NaN
             NaN             NaN             NaN
             NaN             NaN             NaN
             NaN             NaN             NaN
             NaN             NaN             NaN
             NaN             NaN             NaN
             NaN             NaN             NaN
