Na Al S                                 
   1.0000000000000000     
    12.1026382039385112    0.0000000000000000    0.0000000000000007
    -0.0000000000000004    7.0938170788834114    0.0000000000000004
     0.0000000000000000    0.0000000000000000   21.6510149562332330
   Na   Al   S 
    39     8    32
Direct
  0.3479605368822476  0.9076295067386653  0.4986080504068156
  0.6472443824081395  0.4072934545924838  0.9984127745763587
  0.1587940074711511  0.0981506307891351  0.9963466749775307
  0.1522427509797595  0.4082517588937264  0.4986902219115379
  0.3373690713376902  0.5911461380599974  0.9939271516846802
  0.6519508181924891  0.0907983251104127  0.5011999233294802
  0.8479444811902965  0.5909364311033016  0.5012104008211651
  0.8555012691240762  0.9052720095268612  0.9991037036294301
  0.2877941608055608  0.5507955279472441  0.3626453659719715
  0.7140490192763593  0.0487620538088080  0.1360893675569415
  0.2644754743968178  0.7981909023178844  0.8652558695330228
  0.2121364828297487  0.0509303976224018  0.3627053761760379
  0.7124452438684443  0.4481337864813781  0.6378939305642106
  0.7875318019486670  0.9484910754001916  0.6380740017230266
  0.7860749428274616  0.5493703806106751  0.1354229957137818
  0.5525933388617759  0.5611270139062654  0.4347422750572818
  0.4498070049652512  0.0583720233725060  0.0664828748967281
  0.9552084014528646  0.4407959875749441  0.9341165660680417
  0.9473444215602456  0.0612712920287279  0.4349518685452978
  0.5504323637262374  0.9388137824466583  0.9347617142857274
  0.4464994460238927  0.4372820663415666  0.5658651419911109
  0.0537933405209188  0.9376958185093756  0.5661287692988637
  0.0514424042141641  0.5600494469874207  0.0671723446296681
  0.5837156532069940  0.3842689342458527  0.2529269788709314
  0.4158292305503508  0.8833137151638866  0.2467272554315798
  0.9170306949333167  0.6183021757886564  0.7527032895973633
  0.9162035205903720  0.8847625192506641  0.2530860689356089
  0.5814836610562182  0.1157033614301497  0.7528463366269378
  0.4058126638793738  0.6281789965174553  0.7509510083066928
  0.0959149596414264  0.1395859114933344  0.7521022692785806
  0.0845067084856765  0.3836872536826448  0.2469367013295667
  0.8354166601670201  0.1047824313406878  0.8310270519894090
  0.1634648947185511  0.6090458347276098  0.6692608345443531
  0.6638791647694617  0.8926712394533709  0.3304593420147697
  0.6633655011450657  0.6036071845809516  0.8304784348301837
  0.8359453827589149  0.3932073891414234  0.3303163276302996
  0.1643261012397730  0.8915405785109982  0.1684905167199418
  0.3369118302545218  0.3908968861561135  0.1683308526639209
  0.3358394751483047  0.1069193091281235  0.6688349905881665
  0.0425922628536526  0.8311659522677530  0.8742236201110103
  0.9597631717982651  0.3320242326634855  0.6259363243528000
  0.4590106754269030  0.1665800969968885  0.3741651395368635
  0.4533455050816642  0.3333298542361476  0.8740427398984352
  0.0409233470688477  0.6667011771607960  0.3742377985595908
  0.9594766011255231  0.1662976762010402  0.1249496744790477
  0.5411887750967637  0.6652474857690294  0.1248455119819170
  0.5402214423289067  0.8314650487887292  0.6257716119577381
  0.3747980574567649  0.2087856583601990  0.9602949885440495
  0.6306171832269314  0.7067421233657285  0.5425438971564205
  0.1304756364751896  0.7918407062741579  0.4576359477432135
  0.1236187107349949  0.7175562265191147  0.9612285934320113
  0.3694250446414244  0.2915987488693048  0.4575619766674066
  0.6331629043210256  0.7897516726174771  0.0422219959292747
  0.8699348025361644  0.2903808983441394  0.0414231151436226
  0.8691573659684551  0.2067133146406945  0.5428643409108034
  0.4474724300483786  0.8486211407930355  0.3767669282619082
  0.5546289634379988  0.3476296850998395  0.1231376471659118
  0.0504689708073940  0.1463663257938279  0.8787568347987929
  0.0523240531252469  0.3487249599543176  0.3768560991146117
  0.4493860583006750  0.6498555776022670  0.8782555001616288
  0.5529890885807021  0.1495440751729404  0.6229099509249494
  0.9467294901876357  0.6499929512399092  0.6228672068584871
  0.9462641090481725  0.8487074996454353  0.1236351088382435
  0.1407518205916531  0.2469428471442612  0.6234192602211834
  0.8614310330475092  0.7388963091347094  0.8743449034303765
  0.3604908165866405  0.7520967640301279  0.1231216225844065
  0.3592660899135964  0.7454483358920214  0.6233139119211728
  0.1401454838416996  0.2535383361047536  0.1237473021820179
  0.8601286942836097  0.7550058016014418  0.3760991407796368
  0.6398525457751987  0.2547126632846002  0.3760542634280526
  0.6356561352844352  0.2412817381602039  0.8738688066040865
  0.6306932921259616  0.7573677224719830  0.2129570842860886
  0.3690228992896749  0.2573131968453524  0.2862998608305034
  0.8720538197904730  0.2425567024084501  0.7141411732167740
  0.8692578732875305  0.2585945700006036  0.2126634396663931
  0.6283237029676840  0.7415063411655041  0.7137579981002347
  0.3663464439422910  0.2445078681116186  0.7857162674605078
  0.1322291977870620  0.7506449096529906  0.7859981657310868
  0.1309092163162333  0.7575707697677672  0.2863745558711344

             NaN             NaN             NaN
             NaN             NaN             NaN
             NaN             NaN             NaN
             NaN             NaN             NaN
             NaN             NaN             NaN
             NaN             NaN             NaN
             NaN             NaN             NaN
             NaN             NaN             NaN
             NaN             NaN             NaN
             NaN             NaN             NaN
             NaN             NaN             NaN
             NaN             NaN             NaN
             NaN             NaN             NaN
             NaN             NaN             NaN
             NaN             NaN             NaN
             NaN             NaN             NaN
             NaN             NaN             NaN
             NaN             NaN             NaN
             NaN             NaN             NaN
             NaN             NaN             NaN
             NaN             NaN             NaN
             NaN             NaN             NaN
             NaN             NaN             NaN
             NaN             NaN             NaN
             NaN             NaN             NaN
             NaN             NaN             NaN
             NaN             NaN             NaN
             NaN             NaN             NaN
             NaN             NaN             NaN
             NaN             NaN             NaN
             NaN             NaN             NaN
             NaN             NaN             NaN
             NaN             NaN             NaN
             NaN             NaN             NaN
             NaN             NaN             NaN
             NaN             NaN             NaN
             NaN             NaN             NaN
             NaN             NaN             NaN
             NaN             NaN             NaN
             NaN             NaN             NaN
             NaN             NaN             NaN
             NaN             NaN             NaN
             NaN             NaN             NaN
             NaN             NaN             NaN
             NaN             NaN             NaN
             NaN             NaN             NaN
             NaN             NaN             NaN
             NaN             NaN             NaN
             NaN             NaN             NaN
             NaN             NaN             NaN
             NaN             NaN             NaN
             NaN             NaN             NaN
             NaN             NaN             NaN
             NaN             NaN             NaN
             NaN             NaN             NaN
             NaN             NaN             NaN
             NaN             NaN             NaN
             NaN             NaN             NaN
             NaN             NaN             NaN
             NaN             NaN             NaN
             NaN             NaN             NaN
             NaN             NaN             NaN
             NaN             NaN             NaN
             NaN             NaN             NaN
             NaN             NaN             NaN
             NaN             NaN             NaN
             NaN             NaN             NaN
             NaN             NaN             NaN
             NaN             NaN             NaN
             NaN             NaN             NaN
             NaN             NaN             NaN
             NaN             NaN             NaN
             NaN             NaN             NaN
             NaN             NaN             NaN
             NaN             NaN             NaN
             NaN             NaN             NaN
             NaN             NaN             NaN
             NaN             NaN             NaN
             NaN             NaN             NaN
