Na Al S 
 1.0000000000000000
    12.1026382039385112    0.0000000000000000    0.0000000000000007
    -0.0000000000000004    7.0938170788834114    0.0000000000000004
     0.0000000000000000    0.0000000000000000   21.6510149562332330
 Na  Al  S  
  39   8  32
Direct
  0.3479605368822460  0.9076295067386630  0.4986080504068152
  0.6472443824081383  0.4072934545924852 -0.0015872254236379
  0.1587940074711519  0.0981506307891355  0.9963466749775288
  0.1522427509797563  0.4082517588937279  0.4986902219115356
  0.3373690713376931  0.5911461380599989  0.9939271516846830
  0.6519508181924888  0.0907983251104144  0.5011999233294824
  0.8479444811902963  0.5909364311032997  0.5012104008211679
  0.8555012691240752  0.9052720095268606 -0.0008962963705709
  0.2877941608055619  0.5507955279472451  0.3626453659719693
  0.7140490192763602  0.0487620538088057  0.1360893675569381
  0.2644754743968170  0.7981909023178876  0.8652558695330217
  0.2121364828297508  0.0509303976224041  0.3627053761760356
  0.7124452438684478  0.4481337864813781  0.6378939305642135
  0.7875318019486688  0.9484910754001940  0.6380740017230262
  0.7860749428274590  0.5493703806106741  0.1354229957137834
  0.5525933388617766  0.5611270139062661  0.4347422750572827
  0.4498070049652502  0.0583720233725071  0.0664828748967268
  0.9552084014528670  0.4407959875749471  0.9341165660680426
  0.9473444215602455  0.0612712920287278  0.4349518685453003
  0.5504323637262341  0.9388137824466549  0.9347617142857270
  0.4464994460238908  0.4372820663415689  0.5658651419911115
  0.0537933405209179  0.9376958185093767  0.5661287692988661
  0.0514424042141607  0.5600494469874179  0.0671723446296707
  0.5837156532069943  0.3842689342458541  0.2529269788709311
  0.4158292305503532  0.8833137151638896  0.2467272554315796
  0.9170306949333146  0.6183021757886533  0.7527032895973605
  0.9162035205903721  0.8847625192506668  0.2530860689356117
  0.5814836610562149  0.1157033614301524  0.7528463366269343
  0.4058126638793731  0.6281789965174549  0.7509510083066953
  0.0959149596414253  0.1395859114933344  0.7521022692785835
  0.0845067084856797  0.3836872536826439  0.2469367013295663
  0.8354166601670214  0.1047824313406851  0.8310270519894085
  0.1634648947185522  0.6090458347276066  0.6692608345443513
  0.6638791647694645  0.8926712394533710  0.3304593420147731
  0.6633655011450674  0.6036071845809496  0.8304784348301861
  0.8359453827589122  0.3932073891414216  0.3303163276302961
  0.1643261012397724  0.8915405785109971  0.1684905167199424
  0.3369118302545185  0.3908968861561112  0.1683308526639233
  0.3358394751483031  0.1069193091281270  0.6688349905881670
  0.0425922628536513  0.8311659522677566  0.8742236201110122
  0.9597631717982624  0.3320242326634830  0.6259363243528033
  0.4590106754269013  0.1665800969968878  0.3741651395368636
  0.4533455050816663  0.3333298542361495  0.8740427398984377
  0.0409233470688471  0.6667011771607945  0.3742377985595908
  0.9594766011255220  0.1662976762010421  0.1249496744790494
  0.5411887750967664  0.6652474857690291  0.1248455119819161
  0.5402214423289049  0.8314650487887295  0.6257716119577400
  0.3747980574567628  0.2087856583602015  0.9602949885440502
  0.6306171832269303  0.7067421233657313  0.5425438971564183
  0.1304756364751883  0.7918407062741564  0.4576359477432169
  0.1236187107349940  0.7175562265191133  0.9612285934320126
  0.3694250446414232  0.2915987488693037  0.4575619766674034
  0.6331629043210286  0.7897516726174746  0.0422219959292723
  0.8699348025361630  0.2903808983441385  0.0414231151436217
  0.8691573659684537  0.2067133146406949  0.5428643409108007
  0.4474724300483752  0.8486211407930349  0.3767669282619101
  0.5546289634379983  0.3476296850998416  0.1231376471659118
  0.0504689708073935  0.1463663257938307  0.8787568347987915
  0.0523240531252487  0.3487249599543200  0.3768560991146084
  0.4493860583006758  0.6498555776022696  0.8782555001616290
  0.5529890885806994  0.1495440751729401  0.6229099509249512
  0.9467294901876380  0.6499929512399092  0.6228672068584863
  0.9462641090481729  0.8487074996454326  0.1236351088382421
  0.1407518205916546  0.2469428471442578  0.6234192602211833
  0.8614310330475059  0.7388963091347125  0.8743449034303733
  0.3604908165866433  0.7520967640301276  0.1231216225844042
  0.3592660899135960  0.7454483358920219  0.6233139119211741
  0.1401454838416994  0.2535383361047526  0.1237473021820166
  0.8601286942836065  0.7550058016014449  0.3760991407796398
  0.6398525457751997  0.2547126632846031  0.3760542634280559
  0.6356561352844325  0.2412817381602048  0.8738688066040836
  0.6306932921259585  0.7573677224719855  0.2129570842860913
  0.3690228992896741  0.2573131968453519  0.2862998608305067
  0.8720538197904761  0.2425567024084469  0.7141411732167733
  0.8692578732875335  0.2585945700006015  0.2126634396663907
  0.6283237029676826  0.7415063411655022  0.7137579981002349
  0.3663464439422927  0.2445078681116182  0.7857162674605066
  0.1322291977870600  0.7506449096529897  0.7859981657310894
  0.1309092163162328  0.7575707697677699  0.2863745558711360
Cartesian
  0.0000000000000000  0.0000000000000000  0.0000000000000000
  0.0000000000000000  0.0000000000000000  0.0000000000000000
  0.0000000000000000  0.0000000000000000  0.0000000000000000
  0.0000000000000000  0.0000000000000000  0.0000000000000000
  0.0000000000000000  0.0000000000000000  0.0000000000000000
  0.0000000000000000  0.0000000000000000  0.0000000000000000
  0.0000000000000000  0.0000000000000000  0.0000000000000000
  0.0000000000000000  0.0000000000000000  0.0000000000000000
  0.0000000000000000  0.0000000000000000  0.0000000000000000
  0.0000000000000000  0.0000000000000000  0.0000000000000000
  0.0000000000000000  0.0000000000000000  0.0000000000000000
  0.0000000000000000  0.0000000000000000  0.0000000000000000
  0.0000000000000000  0.0000000000000000  0.0000000000000000
  0.0000000000000000  0.0000000000000000  0.0000000000000000
  0.0000000000000000  0.0000000000000000  0.0000000000000000
  0.0000000000000000  0.0000000000000000  0.0000000000000000
  0.0000000000000000  0.0000000000000000  0.0000000000000000
  0.0000000000000000  0.0000000000000000  0.0000000000000000
  0.0000000000000000  0.0000000000000000  0.0000000000000000
  0.0000000000000000  0.0000000000000000  0.0000000000000000
  0.0000000000000000  0.0000000000000000  0.0000000000000000
  0.0000000000000000  0.0000000000000000  0.0000000000000000
  0.0000000000000000  0.0000000000000000  0.0000000000000000
  0.0000000000000000  0.0000000000000000  0.0000000000000000
  0.0000000000000000  0.0000000000000000  0.0000000000000000
  0.0000000000000000  0.0000000000000000  0.0000000000000000
  0.0000000000000000  0.0000000000000000  0.0000000000000000
  0.0000000000000000  0.0000000000000000  0.0000000000000000
  0.0000000000000000  0.0000000000000000  0.0000000000000000
  0.0000000000000000  0.0000000000000000  0.0000000000000000
  0.0000000000000000  0.0000000000000000  0.0000000000000000
  0.0000000000000000  0.0000000000000000  0.0000000000000000
  0.0000000000000000  0.0000000000000000  0.0000000000000000
  0.0000000000000000  0.0000000000000000  0.0000000000000000
  0.0000000000000000  0.0000000000000000  0.0000000000000000
  0.0000000000000000  0.0000000000000000  0.0000000000000000
  0.0000000000000000  0.0000000000000000  0.0000000000000000
  0.0000000000000000  0.0000000000000000  0.0000000000000000
  0.0000000000000000  0.0000000000000000  0.0000000000000000
  0.0000000000000000  0.0000000000000000  0.0000000000000000
  0.0000000000000000  0.0000000000000000  0.0000000000000000
  0.0000000000000000  0.0000000000000000  0.0000000000000000
  0.0000000000000000  0.0000000000000000  0.0000000000000000
  0.0000000000000000  0.0000000000000000  0.0000000000000000
  0.0000000000000000  0.0000000000000000  0.0000000000000000
  0.0000000000000000  0.0000000000000000  0.0000000000000000
  0.0000000000000000  0.0000000000000000  0.0000000000000000
  0.0000000000000000  0.0000000000000000  0.0000000000000000
  0.0000000000000000  0.0000000000000000  0.0000000000000000
  0.0000000000000000  0.0000000000000000  0.0000000000000000
  0.0000000000000000  0.0000000000000000  0.0000000000000000
  0.0000000000000000  0.0000000000000000  0.0000000000000000
  0.0000000000000000  0.0000000000000000  0.0000000000000000
  0.0000000000000000  0.0000000000000000  0.0000000000000000
  0.0000000000000000  0.0000000000000000  0.0000000000000000
  0.0000000000000000  0.0000000000000000  0.0000000000000000
  0.0000000000000000  0.0000000000000000  0.0000000000000000
  0.0000000000000000  0.0000000000000000  0.0000000000000000
  0.0000000000000000  0.0000000000000000  0.0000000000000000
  0.0000000000000000  0.0000000000000000  0.0000000000000000
  0.0000000000000000  0.0000000000000000  0.0000000000000000
  0.0000000000000000  0.0000000000000000  0.0000000000000000
  0.0000000000000000  0.0000000000000000  0.0000000000000000
  0.0000000000000000  0.0000000000000000  0.0000000000000000
  0.0000000000000000  0.0000000000000000  0.0000000000000000
  0.0000000000000000  0.0000000000000000  0.0000000000000000
  0.0000000000000000  0.0000000000000000  0.0000000000000000
  0.0000000000000000  0.0000000000000000  0.0000000000000000
  0.0000000000000000  0.0000000000000000  0.0000000000000000
  0.0000000000000000  0.0000000000000000  0.0000000000000000
  0.0000000000000000  0.0000000000000000  0.0000000000000000
  0.0000000000000000  0.0000000000000000  0.0000000000000000
  0.0000000000000000  0.0000000000000000  0.0000000000000000
  0.0000000000000000  0.0000000000000000  0.0000000000000000
  0.0000000000000000  0.0000000000000000  0.0000000000000000
  0.0000000000000000  0.0000000000000000  0.0000000000000000
  0.0000000000000000  0.0000000000000000  0.0000000000000000
  0.0000000000000000  0.0000000000000000  0.0000000000000000
  0.0000000000000000  0.0000000000000000  0.0000000000000000
