generated by phonopy                    
   1.0000000000000000     
     0.0000000000000000   10.3073670864010332   -0.3728557308287062
    16.7884944112601460    0.0000000000000000    0.0000000000000000
     0.0000000000000000   -1.7325198006300944  -10.7072151822000858
   S 
    56
Direct
  0.8864231410188452  0.4670047514298119  0.6781263856717814
  0.8864231410188452  0.9670047514298119  0.6781263856717814
  0.3295632636351087  0.1887438228381342  0.5507077211243114
  0.3295632636351087  0.6887438228381342  0.5507077211243114
  0.9126712853297434  0.1052418849300167  0.9119604713819598
  0.9126712853297434  0.6052418849300167  0.9119604713819598
  0.2397364047680313  0.3014266928039007  0.7765741886874054
  0.2397364047680313  0.8008310467766222  0.7765741886874054
  0.1444175160456354  0.3056887621491740  0.2243966804343245
  0.1444175160456354  0.8056887621491740  0.2243966804343245
  0.8555824839543646  0.1943112378508189  0.7756033195656755
  0.8555824839543646  0.6943112378508189  0.7756033195656755
  0.7602635952319687  0.1991689532233778  0.2234258113125946
  0.7602635952319687  0.6991689532233778  0.2234258113125946
  0.1704367363648913  0.4387438228381342  0.4492922788756886
  0.1704367363648913  0.9387438228381342  0.4492922788756886
  0.4126712853297434  0.1447581150699833  0.9119604713819598
  0.4126712853297434  0.6447581150699833  0.9119604713819598
  0.3864231410188452  0.2829952485701881  0.6781263856717814
  0.3864231410188452  0.7829952485701881  0.6781263856717814
  0.6444175160456354  0.4443112378508260  0.2243966804343245
  0.6444175160456354  0.9443112378508260  0.2243966804343245
  0.8295632636351087  0.0612561771618658  0.5507077211243114
  0.8295632636351087  0.5612561771618658  0.5507077211243114
  0.2602635952319687  0.0508310467766222  0.2234258113125946
  0.2602635952319687  0.5508310467766222  0.2234258113125946
  0.6135768589811548  0.2170047514298119  0.3218736143282186
  0.6135768589811548  0.7170047514298119  0.3218736143282186
  0.1135768589811548  0.0329952485701881  0.3218736143282186
  0.1135768589811548  0.5329952485701881  0.3218736143282186
  0.0598957000750104  0.3450877340465581  0.3744843668261026
  0.0598957000750104  0.8450877340465581  0.3744843668261026
  0.7434252096043039  0.2893443434311749  0.0711652340781939
  0.7434252096043039  0.7893443434311749  0.0711652340781939
  0.5873287146702566  0.3552418849300167  0.0880395286180473
  0.5873287146702566  0.8552418849300167  0.0880395286180473
  0.2565747903956961  0.2106556565688251  0.9288347659218132
  0.2565747903956961  0.7106556565688251  0.9288347659218132
  0.0873287146702566  0.3947581150699833  0.0880395286180473
  0.0873287146702566  0.8947581150699833  0.0880395286180473
  0.4401042999249896  0.0950877340465581  0.6255156331738974
  0.4401042999249896  0.5950877340465581  0.6255156331738974
  0.3555824839543646  0.0556887621491811  0.7756033195656755
  0.3555824839543646  0.5556887621491740  0.7756033195656755
  0.7397364047680313  0.4491689532233778  0.7765741886874054
  0.7397364047680313  0.9491689532233778  0.7765741886874054
  0.9401042999249896  0.1549122659534419  0.6255156331738974
  0.9401042999249896  0.6549122659534419  0.6255156331738974
  0.2434252096043039  0.4606556565688251  0.0711652340781939
  0.2434252096043039  0.9606556565688251  0.0711652340781939
  0.7565747903956961  0.0393443434311749  0.9288347659218132
  0.7565747903956961  0.5393443434311749  0.9288347659218132
  0.5598957000750104  0.4049122659534419  0.3744843668261026
  0.5598957000750104  0.9049122659534419  0.3744843668261026
  0.6704367363648913  0.3112561771618658  0.4492922788756886
  0.6704367363648913  0.8112561771618658  0.4492922788756886

  0.00000000E+00  0.00000000E+00  0.00000000E+00
  0.00000000E+00  0.00000000E+00  0.00000000E+00
  0.00000000E+00  0.00000000E+00  0.00000000E+00
  0.00000000E+00  0.00000000E+00  0.00000000E+00
  0.00000000E+00  0.00000000E+00  0.00000000E+00
  0.00000000E+00  0.00000000E+00  0.00000000E+00
  0.00000000E+00  0.00000000E+00  0.00000000E+00
  0.00000000E+00  0.00000000E+00  0.00000000E+00
  0.00000000E+00  0.00000000E+00  0.00000000E+00
  0.00000000E+00  0.00000000E+00  0.00000000E+00
  0.00000000E+00  0.00000000E+00  0.00000000E+00
  0.00000000E+00  0.00000000E+00  0.00000000E+00
  0.00000000E+00  0.00000000E+00  0.00000000E+00
  0.00000000E+00  0.00000000E+00  0.00000000E+00
  0.00000000E+00  0.00000000E+00  0.00000000E+00
  0.00000000E+00  0.00000000E+00  0.00000000E+00
  0.00000000E+00  0.00000000E+00  0.00000000E+00
  0.00000000E+00  0.00000000E+00  0.00000000E+00
  0.00000000E+00  0.00000000E+00  0.00000000E+00
  0.00000000E+00  0.00000000E+00  0.00000000E+00
  0.00000000E+00  0.00000000E+00  0.00000000E+00
  0.00000000E+00  0.00000000E+00  0.00000000E+00
  0.00000000E+00  0.00000000E+00  0.00000000E+00
  0.00000000E+00  0.00000000E+00  0.00000000E+00
  0.00000000E+00  0.00000000E+00  0.00000000E+00
  0.00000000E+00  0.00000000E+00  0.00000000E+00
  0.00000000E+00  0.00000000E+00  0.00000000E+00
  0.00000000E+00  0.00000000E+00  0.00000000E+00
  0.00000000E+00  0.00000000E+00  0.00000000E+00
  0.00000000E+00  0.00000000E+00  0.00000000E+00
  0.00000000E+00  0.00000000E+00  0.00000000E+00
  0.00000000E+00  0.00000000E+00  0.00000000E+00
  0.00000000E+00  0.00000000E+00  0.00000000E+00
  0.00000000E+00  0.00000000E+00  0.00000000E+00
  0.00000000E+00  0.00000000E+00  0.00000000E+00
  0.00000000E+00  0.00000000E+00  0.00000000E+00
  0.00000000E+00  0.00000000E+00  0.00000000E+00
  0.00000000E+00  0.00000000E+00  0.00000000E+00
  0.00000000E+00  0.00000000E+00  0.00000000E+00
  0.00000000E+00  0.00000000E+00  0.00000000E+00
  0.00000000E+00  0.00000000E+00  0.00000000E+00
  0.00000000E+00  0.00000000E+00  0.00000000E+00
  0.00000000E+00  0.00000000E+00  0.00000000E+00
  0.00000000E+00  0.00000000E+00  0.00000000E+00
  0.00000000E+00  0.00000000E+00  0.00000000E+00
  0.00000000E+00  0.00000000E+00  0.00000000E+00
  0.00000000E+00  0.00000000E+00  0.00000000E+00
  0.00000000E+00  0.00000000E+00  0.00000000E+00
  0.00000000E+00  0.00000000E+00  0.00000000E+00
  0.00000000E+00  0.00000000E+00  0.00000000E+00
  0.00000000E+00  0.00000000E+00  0.00000000E+00
  0.00000000E+00  0.00000000E+00  0.00000000E+00
  0.00000000E+00  0.00000000E+00  0.00000000E+00
  0.00000000E+00  0.00000000E+00  0.00000000E+00
  0.00000000E+00  0.00000000E+00  0.00000000E+00
  0.00000000E+00  0.00000000E+00  0.00000000E+00
