Na Al S                                 
   1.0000000000000000     
    12.1828203277415312    0.0000000000000000    0.0000000000000007
    -0.0000000000000005    7.5674693205415418    1.1970639402156102
     0.0000000000000000    0.0113082934473333   13.7304524371335805
   Na   Al   S 
    23     8    24
Direct
  0.9705224001897719  0.0789749623749572  0.7764982773287485
  0.7635098239568165  0.1053399618461555  0.9617601202076784
  0.7984279052880296  0.5360470137596565  0.7470272390514907
  0.7288829839005047  0.9113737717507107  0.5576247652193373
  0.8948093220134155  0.0724436986278789  0.4389236661119611
  0.2466935500994651  0.5698236771658856  0.5155701119212566
  0.7860513552494695  0.5208361839612863  0.2935458265604183
  0.2753966289923184  0.0627692828443784  0.5179356936350956
  0.7120015795702557  0.5416759814027188  0.9670324487011541
  0.4182837937351493  0.3901452662551321  0.6424567321395855
  0.2808254841352635  0.5194233438800282  0.9172474195945881
  0.2681701091436253  0.0136711058966910  0.9170864492004611
  0.7485282307332568  0.4088174727320322  0.5583310201647436
  0.2070639992782120  0.4442900979120807  0.3208790092076015
  0.3044140700282298  0.9581679231048170  0.2863878738742613
  0.5815567285934620  0.5965428227172538  0.3987129507747014
  0.3419994206990395  0.9977341979119672  0.7440253264197594
  0.0870817736860729  0.9054194678016856  0.6262493256534967
  0.1823799773838033  0.4914603662023111  0.7374394196456322
  0.5112498362302276  0.3991782940566893  0.2244660142938031
  0.6894077428520049  0.0280565759892184  0.7551469785177574
  0.5254677534539880  0.5908592898087335  0.7911177616937408
  0.6716406898845406  0.9906553491126573  0.2790645540187455
  0.9489758782686266  0.3443781174682456  0.9230271690268097
  0.0182538908558172  0.2730764307321678  0.6555383833816464
  0.5439708191195507  0.1185511393515668  0.5450435997979213
  0.4858612008662249  0.8026013500613445  0.6120731456414035
  0.5685686630067934  0.1802530732369121  0.8166776584028455
  0.6800573104946750  0.9173451236589969  0.9781000194359493
  0.9406099312712186  0.6558636287135471  0.5977167042415346
  0.9384354216946704  0.8412820688767795  0.7009958550345203
  0.4036435319755185  0.3236200445439650  0.7177854216893564
  0.3676819764460930  0.0482233699521402  0.1042207195733198
  0.4424678833117213  0.3424931253943910  0.5688446325097445
  0.1828848399119494  0.9511432053755087  0.6315829077831410
  0.8349486408161866  0.0701353260263033  0.0297066109490700
  0.6550033422633632  0.7247553830172535  0.1458532137235906
  0.7433023407011206  0.7367748591655001  0.4636504156804335
  0.0774930055647616  0.8372487991624737  0.6892602278042261
  0.3134321555708226  0.7414635040870721  0.6489226318635914
  0.5892690165429784  0.9394956770877059  0.7668357651474054
  0.6389530559379750  0.2825512134565358  0.7936010136054463
  0.4575604968427811  0.9007003248770147  0.2043254483881398
  0.2006906162129738  0.2239495822220121  0.6605990564796613
  0.0169605726820166  0.3338576333274119  0.5599921167132109
  0.5857654518908504  0.6038163503105025  0.6286159252953496
  0.5924093113952509  0.1434427204949742  0.0443860057505532
  0.6409803859864667  0.2293646803939424  0.4864965849113077
  0.8939688056800179  0.0710474067684714  0.6402076921962419
  0.9711547259172733  0.5639872998186064  0.6810538143658462
  0.9504875305219258  0.4348834288755867  0.4936212801743025
  0.7004590777243251  0.8871865935548584  0.7634654456280643
  0.5466720184538616  0.0701873829203876  0.6445375405962821
  0.5181479978228083  0.7255927957500390  0.1043022391443102
  0.5026287880945048  0.8757136017581999  0.5246509320216362

             NaN             NaN             NaN
             NaN             NaN             NaN
             NaN             NaN             NaN
             NaN             NaN             NaN
             NaN             NaN             NaN
             NaN             NaN             NaN
             NaN             NaN             NaN
             NaN             NaN             NaN
             NaN             NaN             NaN
             NaN             NaN             NaN
             NaN             NaN             NaN
             NaN             NaN             NaN
             NaN             NaN             NaN
             NaN             NaN             NaN
             NaN             NaN             NaN
             NaN             NaN             NaN
             NaN             NaN             NaN
             NaN             NaN             NaN
             NaN             NaN             NaN
             NaN             NaN             NaN
             NaN             NaN             NaN
             NaN             NaN             NaN
             NaN             NaN             NaN
             NaN             NaN             NaN
             NaN             NaN             NaN
             NaN             NaN             NaN
             NaN             NaN             NaN
             NaN             NaN             NaN
             NaN             NaN             NaN
             NaN             NaN             NaN
             NaN             NaN             NaN
             NaN             NaN             NaN
             NaN             NaN             NaN
             NaN             NaN             NaN
             NaN             NaN             NaN
             NaN             NaN             NaN
             NaN             NaN             NaN
             NaN             NaN             NaN
             NaN             NaN             NaN
             NaN             NaN             NaN
             NaN             NaN             NaN
             NaN             NaN             NaN
             NaN             NaN             NaN
             NaN             NaN             NaN
             NaN             NaN             NaN
             NaN             NaN             NaN
             NaN             NaN             NaN
             NaN             NaN             NaN
             NaN             NaN             NaN
             NaN             NaN             NaN
             NaN             NaN             NaN
             NaN             NaN             NaN
             NaN             NaN             NaN
             NaN             NaN             NaN
             NaN             NaN             NaN
