Na Al S 
 1.0000000000000000
    12.1828203277415312    0.0000000000000000    0.0000000000000007
    -0.0000000000000005    7.5674693205415418    1.1970639402156102
     0.0000000000000000    0.0113082934473333   13.7304524371335805
 Na  Al  S  
  23   8  24
Direct
  0.8572853415227665  0.0759172452653297  0.9383887653150530
  0.7489293981518544  0.4461588195370869 -0.0053483881935706
  0.8265867101086420  0.4996024594462877  0.7446331576900178
  0.7510756036086828  0.9575130388522424  0.5167122801098236
  0.9102837817770371  0.1211185792591347  0.3440809013647407
  0.2595508717402316  0.5069234974778908  0.4674707478540562
  0.8258430768919932  0.5168189799954496  0.2376959237672721
  0.2491902074143110  0.0213098594667672  0.4851995885128205
  0.4421968124717925  0.3796478548878094  0.6620096690005867
  0.2914322734654530  0.4330069594493262  1.0067642000319161
  0.2453317008118608  0.0005436673116078  0.9863537482030521
  0.7606331936327402  0.4637594723542710  0.5049368133075250
  0.1814419505044784  0.4859111970025504  0.2416963863108857
  0.0232715892605896  0.9223778784951467  0.1823287855845590
  0.5656139040353382  0.5868289223083145  0.3372939433288686
  0.3450988576498170  0.9075479816963369  0.7587115211957015
  0.0075310787664145  0.9656524834997890  0.7022379850662072
  0.3248452343737488  0.9046000333178867  0.2419823066605546
  0.1834875820727464  0.4590940750493930  0.7693279352838677
  0.4703237898911119  0.4046226882202148  0.1754139011545985
  0.6880363414915127  0.0163219799883075  0.7507816867332485
  0.5523376190495624  0.5824297062825898  0.8297370194059359
  0.6799348342225113 -0.0008621220923091  0.2311000593450200
  0.0095943969444921  0.3345067165765019  0.0726912224949064
  0.0101121514293929  0.3075854294119337  0.5695360321088743
  0.5174863316630720  0.1642320714942049  0.4249759474913179
  0.5128433257003112  0.8269516612335455  0.5613852611993786
  0.5157106446831760  0.1586453778734125  0.9242263348999823
  0.5021985486418269  0.8240745200244020  0.0634252524141251
  0.9975119779388284  0.6782298483584670  0.4255900185303980
  0.0886785179247760  0.6856128518790470  1.0014076670818213
  0.3663563127937945  0.2841068791734200  0.8536817443679160
  0.1695263855090791  0.2139493096040166  0.1253930530393449
  0.3748363413601744  0.3163828455699961  0.3607667974741230
  0.1453532493074914  0.8576275904001556  0.8358548673300003
 -0.0015997790410311  0.6263241709397694  0.0917105073617749
  0.6405584773777865  0.6752639403500438  0.1425897605968794
  0.8367015321856276  0.7813135471144601  0.3658067352638023
  0.1326461752844623  0.8275518704948351  0.3510064779546552
  0.3593904297249002  0.7111696873580324  0.6122013199807165
  0.5262457020522678  0.8871139722124448  0.9073360302372161
  0.6706008814139240  0.2902395164118071  0.8689607538378850
  0.8653621351418379  0.1888626372418607  0.1441902221841715
  0.1734717254355496  0.2018688402622664  0.6306583936538548
  0.0144844203909767  0.3829768956400936  0.3976687705183340
  0.6467564786004515  0.6563036963280783  0.6256752001075278
  0.5002442793911833  0.1124002248733473  0.0921523495694219
  0.6775247084213862  0.2692242398055935  0.3635834512667424
  0.8622978159429799  0.1858319667491437  0.6262544895961907
  0.0618101215734828  0.6678382062645707  0.5880877656035809
 -0.0035007664899893  0.3567699758891220  0.9043247987390378
  0.8484259339533937  0.7927622204310688  0.8587933133297748
  0.5213391425880087  0.0985557348316658  0.5939469762076944
  0.3382044315921146  0.6883561837495779  0.0959810646896248
  0.5018226664826342  0.8894808509850434  0.3971313856188776
Cartesian
  0.0000000000000000  0.0000000000000000  0.0000000000000000
  0.0000000000000000  0.0000000000000000  0.0000000000000000
  0.0000000000000000  0.0000000000000000  0.0000000000000000
  0.0000000000000000  0.0000000000000000  0.0000000000000000
  0.0000000000000000  0.0000000000000000  0.0000000000000000
  0.0000000000000000  0.0000000000000000  0.0000000000000000
  0.0000000000000000  0.0000000000000000  0.0000000000000000
  0.0000000000000000  0.0000000000000000  0.0000000000000000
  0.0000000000000000  0.0000000000000000  0.0000000000000000
  0.0000000000000000  0.0000000000000000  0.0000000000000000
  0.0000000000000000  0.0000000000000000  0.0000000000000000
  0.0000000000000000  0.0000000000000000  0.0000000000000000
  0.0000000000000000  0.0000000000000000  0.0000000000000000
  0.0000000000000000  0.0000000000000000  0.0000000000000000
  0.0000000000000000  0.0000000000000000  0.0000000000000000
  0.0000000000000000  0.0000000000000000  0.0000000000000000
  0.0000000000000000  0.0000000000000000  0.0000000000000000
  0.0000000000000000  0.0000000000000000  0.0000000000000000
  0.0000000000000000  0.0000000000000000  0.0000000000000000
  0.0000000000000000  0.0000000000000000  0.0000000000000000
  0.0000000000000000  0.0000000000000000  0.0000000000000000
  0.0000000000000000  0.0000000000000000  0.0000000000000000
  0.0000000000000000  0.0000000000000000  0.0000000000000000
  0.0000000000000000  0.0000000000000000  0.0000000000000000
  0.0000000000000000  0.0000000000000000  0.0000000000000000
  0.0000000000000000  0.0000000000000000  0.0000000000000000
  0.0000000000000000  0.0000000000000000  0.0000000000000000
  0.0000000000000000  0.0000000000000000  0.0000000000000000
  0.0000000000000000  0.0000000000000000  0.0000000000000000
  0.0000000000000000  0.0000000000000000  0.0000000000000000
  0.0000000000000000  0.0000000000000000  0.0000000000000000
  0.0000000000000000  0.0000000000000000  0.0000000000000000
  0.0000000000000000  0.0000000000000000  0.0000000000000000
  0.0000000000000000  0.0000000000000000  0.0000000000000000
  0.0000000000000000  0.0000000000000000  0.0000000000000000
  0.0000000000000000  0.0000000000000000  0.0000000000000000
  0.0000000000000000  0.0000000000000000  0.0000000000000000
  0.0000000000000000  0.0000000000000000  0.0000000000000000
  0.0000000000000000  0.0000000000000000  0.0000000000000000
  0.0000000000000000  0.0000000000000000  0.0000000000000000
  0.0000000000000000  0.0000000000000000  0.0000000000000000
  0.0000000000000000  0.0000000000000000  0.0000000000000000
  0.0000000000000000  0.0000000000000000  0.0000000000000000
  0.0000000000000000  0.0000000000000000  0.0000000000000000
  0.0000000000000000  0.0000000000000000  0.0000000000000000
  0.0000000000000000  0.0000000000000000  0.0000000000000000
  0.0000000000000000  0.0000000000000000  0.0000000000000000
  0.0000000000000000  0.0000000000000000  0.0000000000000000
  0.0000000000000000  0.0000000000000000  0.0000000000000000
  0.0000000000000000  0.0000000000000000  0.0000000000000000
  0.0000000000000000  0.0000000000000000  0.0000000000000000
  0.0000000000000000  0.0000000000000000  0.0000000000000000
  0.0000000000000000  0.0000000000000000  0.0000000000000000
  0.0000000000000000  0.0000000000000000  0.0000000000000000
  0.0000000000000000  0.0000000000000000  0.0000000000000000
