Na3AlS3 bottleneck NEB image 09
  1.0
     12.1828203277415312      0.0000000000000000      0.0000000000000007
     -0.0000000000000005      7.5674693205415418      1.1970639402156102
      0.0000000000000000      0.0113082934473333     13.7304524371335805
  Na  Al  S
  23  8  24
Direct
  0.8457515380771417  0.0791337777640774  0.9450877408391997
  0.8185909195281147  0.4483693779313694  0.7696163060070884
  0.7543249745304306  0.9097024203673384  0.5430447210204258
  0.8871501185898725  0.1125720979816369  0.3609078293365721
  0.2165308355946189  0.4900709301438424  0.4683641661265859
  0.8682926037873501  0.5218109016122533  0.2637734542375331
  0.2047315593473478  0.0726399609844683  0.4610174214273345
  0.6997602598567709  0.4707490058652259  0.0490095275540678
  0.4334299912543775  0.3860837917794284  0.6583622554572230
  0.2595358906253878  0.5027892409891349  0.9850081182939722
  0.2453245169650214  0.0132425147804862  0.9859865324872171
  0.7591259052841908  0.4658696398540817  0.5045625009330020
  0.1864074224882934  0.4988974750996909  0.2458470961765024
  0.0269881389186532  0.9221305994711965  0.1865940503752766
  0.5588867597271062  0.5894726714190610  0.3370677602241626
  0.3224896073201537  0.9834919273611885  0.7505366578946878
  0.0209193810667677  0.9359027456802775  0.7065874657904986
  0.3215031125625583  0.9844824291770552  0.2429663792935024
  0.1767532664252682  0.4956367934885542  0.7489383279008748
  0.4676803308944454  0.4081558645127576  0.1762666470392303
  0.6882946325922178  0.0203069205899067  0.7520775156839195
  0.5397797772388133  0.5854532674890048  0.8212278142032854
  0.6801328774422549  0.0000019306608605  0.2302127386016251
  0.0110224694449795  0.3366232341665115  0.0740153909486566
  0.0134910658948366  0.3341296687528140  0.5710859550860625
  0.5155937709868558  0.1676906857009807  0.4248276393130005
  0.4958486663242677  0.8177159674638114  0.5666579134274647
  0.5117851034611923  0.1674708495792452  0.9231356922023494
  0.4977843169570230  0.8255088570075880  0.0686238846392583
  0.9976428507850373  0.6791908566909435  0.4258249263213225
  0.0005409719348308  0.6674556778917099  0.9232455386059431
  0.3612427641215344  0.2997572846882873  0.8533919611085062
  0.1705780845540014  0.2177519733936874  0.1273331377536050
  0.3710125288342508  0.3299770237152989  0.3664109748046019
  0.1559207699887030  0.7883408014325322  0.8603198360922364
  0.0000301221217216  0.6281518493534660  0.0932275154852314
  0.6382451964505604  0.6755779044774216  0.1439144254288278
  0.8361149327466740  0.7821267925647148  0.3665233689729547
  0.1451875959205132  0.8218757951528244  0.3587663983693878
  0.3369870268506934  0.7142614751655674  0.6286497849841649
  0.5086949758051755  0.8777754811219006  0.8993532845365280
  0.6666649542137728  0.3005512647455127  0.8685343911561167
  0.8626846928885488  0.1958960194094101  0.1413492840928868
  0.1726785957804211  0.2198248739474362  0.6294662338773503
  0.0176879652097219  0.3917877004201917  0.4010253392639571
  0.6402859691549202  0.6573090517331244  0.6257057889991078
  0.5007921738841669  0.1146632929717560  0.0922031098216582
  0.6764921926339574  0.2708689385904766  0.3633606888381881
  0.8617918189402870  0.1881997112671061  0.6265742268329334
  0.0004639290101474  0.6245394096631917  0.5952375162705053
  0.0024067094638038  0.3738169776531161  0.9050136012985546
  0.8471783074926323  0.7918009305462391  0.8578720942316536
  0.5208816041414155  0.1018587367517093  0.5944698757993780
  0.3365034754367693  0.7104954972555618  0.1202814403994245
  0.4915876077974109  0.8849594664441571  0.3970386559170884
