Na Al S 
 1.0000000000000000
    12.1828203277415312   -0.0000000000000000    0.0000000000000007
    -0.0000000000000005    7.5674693205415418    1.1970639402156102
     0.0000000000000000    0.0113082934473333   13.7304524371335805
 Na  Al  S  
  23   8  24
Direct
  0.9705224001897725  0.0789749623749550  0.7764982773287485
  0.7635098239568181  0.1053399618461584 -0.0382398797923184
  0.7984279052880298  0.5360470137596531  0.7470272390514882
  0.7288829839005061  0.9113737717507132  0.5576247652193340
  0.8948093220134143  0.0724436986278805  0.4389236661119604
  0.2466935500994687  0.5698236771658846  0.5155701119212581
  0.7860513552494690  0.5208361839612867  0.2935458265604212
  0.2753966289923165  0.0627692828443759  0.5179356936350971
  0.7120015795702586  0.5416759814027199 -0.0329675512988471
  0.4182837937351491  0.3901452662551345  0.6424567321395847
  0.2808254841352660  0.5194233438800284  0.9172474195945873
  0.2681701091436225  0.0136711058966875  0.9170864492004608
  0.7485282307332563  0.4088174727320353  0.5583310201647449
  0.2070639992782103  0.4442900979120813  0.3208790092075991
  0.3044140700282276  0.9581679231048194  0.2863878738742584
  0.5815567285934615  0.5965428227172543  0.3987129507747044
  0.3419994206990401  0.9977341979119670  0.7440253264197572
  0.0870817736860698  0.9054194678016885  0.6262493256534984
  0.1823799773838028  0.4914603662023143  0.7374394196456344
  0.5112498362302256  0.3991782940566920  0.2244660142938056
  0.6894077428520047  0.0280565759892185  0.7551469785177539
  0.5254677534539857  0.5908592898087320  0.7911177616937426
  0.6716406898845400 -0.0093446508873397  0.2790645540187489
 -0.0510241217313735  0.3443781174682460 -0.0769728309731893
  0.0182538908558207  0.2730764307321686  0.6555383833816482
  0.5439708191195484  0.1185511393515643  0.5450435997979237
  0.4858612008662274  0.8026013500613478  0.6120731456414022
  0.5685686630067953  0.1802530732369130  0.8166776584028446
  0.6800573104946760  0.9173451236589975 -0.0218999805640535
  0.9406099312712199  0.6558636287135446  0.5977167042415318
  0.9384354216946694  0.8412820688767813  0.7009958550345222
  0.4036435319755192  0.3236200445439681  0.7177854216893532
  0.3676819764460930  0.0482233699521379  0.1042207195733230
  0.4424678833117184  0.3424931253943940  0.5688446325097413
  0.1828848399119462  0.9511432053755070  0.6315829077831439
 -0.1650513591838121  0.0701353260263066  0.0297066109490727
  0.6550033422633661  0.7247553830172538  0.1458532137235873
  0.7433023407011178  0.7367748591654996  0.4636504156804341
  0.0774930055647650  0.8372487991624727  0.6892602278042254
  0.3134321555708220  0.7414635040870750  0.6489226318635881
  0.5892690165429815  0.9394956770877086  0.7668357651474083
  0.6389530559379760  0.2825512134565334  0.7936010136054491
  0.4575604968427829 -0.0992996751229872  0.2043254483881376
  0.2006906162129773  0.2239495822220156  0.6605990564796601
  0.0169605726820165  0.3338576333274093  0.5599921167132105
  0.5857654518908486  0.6038163503105028  0.6286159252953488
  0.5924093113952522  0.1434427204949742  0.0443860057505527
  0.6409803859864672  0.2293646803939391  0.4864965849113078
  0.8939688056800181  0.0710474067684733  0.6402076921962410
  0.9711547259172723  0.5639872998186061  0.6810538143658436
  0.9504875305219240  0.4348834288755872  0.4936212801743007
  0.7004590777243269  0.8871865935548564  0.7634654456280611
  0.5466720184538592  0.0701873829203850  0.6445375405962801
  0.5181479978228101  0.7255927957500367  0.1043022391443081
  0.5026287880945056  0.8757136017581991  0.5246509320216373
Cartesian
  0.0000000000000000  0.0000000000000000  0.0000000000000000
  0.0000000000000000  0.0000000000000000  0.0000000000000000
  0.0000000000000000  0.0000000000000000  0.0000000000000000
  0.0000000000000000  0.0000000000000000  0.0000000000000000
  0.0000000000000000  0.0000000000000000  0.0000000000000000
  0.0000000000000000  0.0000000000000000  0.0000000000000000
  0.0000000000000000  0.0000000000000000  0.0000000000000000
  0.0000000000000000  0.0000000000000000  0.0000000000000000
  0.0000000000000000  0.0000000000000000  0.0000000000000000
  0.0000000000000000  0.0000000000000000  0.0000000000000000
  0.0000000000000000  0.0000000000000000  0.0000000000000000
  0.0000000000000000  0.0000000000000000  0.0000000000000000
  0.0000000000000000  0.0000000000000000  0.0000000000000000
  0.0000000000000000  0.0000000000000000  0.0000000000000000
  0.0000000000000000  0.0000000000000000  0.0000000000000000
  0.0000000000000000  0.0000000000000000  0.0000000000000000
  0.0000000000000000  0.0000000000000000  0.0000000000000000
  0.0000000000000000  0.0000000000000000  0.0000000000000000
  0.0000000000000000  0.0000000000000000  0.0000000000000000
  0.0000000000000000  0.0000000000000000  0.0000000000000000
  0.0000000000000000  0.0000000000000000  0.0000000000000000
  0.0000000000000000  0.0000000000000000  0.0000000000000000
  0.0000000000000000  0.0000000000000000  0.0000000000000000
  0.0000000000000000  0.0000000000000000  0.0000000000000000
  0.0000000000000000  0.0000000000000000  0.0000000000000000
  0.0000000000000000  0.0000000000000000  0.0000000000000000
  0.0000000000000000  0.0000000000000000  0.0000000000000000
  0.0000000000000000  0.0000000000000000  0.0000000000000000
  0.0000000000000000  0.0000000000000000  0.0000000000000000
  0.0000000000000000  0.0000000000000000  0.0000000000000000
  0.0000000000000000  0.0000000000000000  0.0000000000000000
  0.0000000000000000  0.0000000000000000  0.0000000000000000
  0.0000000000000000  0.0000000000000000  0.0000000000000000
  0.0000000000000000  0.0000000000000000  0.0000000000000000
  0.0000000000000000  0.0000000000000000  0.0000000000000000
  0.0000000000000000  0.0000000000000000  0.0000000000000000
  0.0000000000000000  0.0000000000000000  0.0000000000000000
  0.0000000000000000  0.0000000000000000  0.0000000000000000
  0.0000000000000000  0.0000000000000000  0.0000000000000000
  0.0000000000000000  0.0000000000000000  0.0000000000000000
  0.0000000000000000  0.0000000000000000  0.0000000000000000
  0.0000000000000000  0.0000000000000000  0.0000000000000000
  0.0000000000000000  0.0000000000000000  0.0000000000000000
  0.0000000000000000  0.0000000000000000  0.0000000000000000
  0.0000000000000000  0.0000000000000000  0.0000000000000000
  0.0000000000000000  0.0000000000000000  0.0000000000000000
  0.0000000000000000  0.0000000000000000  0.0000000000000000
  0.0000000000000000  0.0000000000000000  0.0000000000000000
  0.0000000000000000  0.0000000000000000  0.0000000000000000
  0.0000000000000000  0.0000000000000000  0.0000000000000000
  0.0000000000000000  0.0000000000000000  0.0000000000000000
  0.0000000000000000  0.0000000000000000  0.0000000000000000
  0.0000000000000000  0.0000000000000000  0.0000000000000000
  0.0000000000000000  0.0000000000000000  0.0000000000000000
  0.0000000000000000  0.0000000000000000  0.0000000000000000
