Na8 Sn6 S16                             
   1.0000000000000000     
     6.7921940074259401   -0.0017150114410088    0.4779349211278916
     2.7564695832503183    6.2077192117872819    0.4779349211278916
    -0.0065115619278542   -0.0042320875891509   17.8368956552402516
   Na   Sn   S 
     8     6    16
Direct
  0.0997595430358469  0.4299442377837676  0.3746511418893181
  0.9002404569641531  0.5700557622162324  0.6253488581106817
  0.4299442377837676  0.0997595430358469  0.8746511418893183
  0.5700557622162324  0.9002404569641531  0.1253488581106819
  0.4853937958001266  0.2335375934169117  0.6636558461082176
  0.7664624065830884  0.5146062041998734  0.8363441538917824
  0.2335375934169117  0.4853937958001266  0.1636558461082176
  0.5146062041998734  0.7664624065830884  0.3363441538917825
  0.2688450980775753  0.9334273290734002  0.5321691796289657
  0.0665726709265997  0.7311549019224247  0.9678308203710343
  0.7311549019224247  0.0665726709265997  0.4678308203710340
  0.9334273290734002  0.2688450980775753  0.0321691796289659
  0.0837119742588998  0.9162880257411001  0.7500000000000000
  0.9162880257411001  0.0837119742588998  0.2500000000000000
  0.1308934872381880  0.8285817796984022  0.4265041522005282
  0.1714182203015978  0.8691065127618119  0.0734958477994719
  0.3389078872153689  0.6995194294939207  0.6495880165322507
  0.6995194294939207  0.3389078872153689  0.1495880165322508
  0.3004805705060793  0.6610921127846311  0.8504119834677493
  0.6610921127846311  0.3004805705060793  0.3504119834677492
  0.2669152080134147  0.3265226742626943  0.0155453182962527
  0.6734773257373059  0.7330847919865853  0.4844546817037473
  0.7330847919865853  0.6734773257373059  0.9844546817037473
  0.3265226742626943  0.2669152080134147  0.5155453182962527
  0.7471518068520874  0.8863491749107310  0.7522260623450520
  0.1136508250892690  0.2528481931479125  0.7477739376549480
  0.2528481931479125  0.1136508250892690  0.2477739376549480
  0.8863491749107310  0.7471518068520874  0.2522260623450520
  0.8691065127618119  0.1714182203015978  0.5734958477994718
  0.8285817796984022  0.1308934872381880  0.9265041522005282

  0.00000000E+00  0.00000000E+00  0.00000000E+00
  0.00000000E+00  0.00000000E+00  0.00000000E+00
  0.00000000E+00  0.00000000E+00  0.00000000E+00
  0.00000000E+00  0.00000000E+00  0.00000000E+00
  0.00000000E+00  0.00000000E+00  0.00000000E+00
  0.00000000E+00  0.00000000E+00  0.00000000E+00
  0.00000000E+00  0.00000000E+00  0.00000000E+00
  0.00000000E+00  0.00000000E+00  0.00000000E+00
  0.00000000E+00  0.00000000E+00  0.00000000E+00
  0.00000000E+00  0.00000000E+00  0.00000000E+00
  0.00000000E+00  0.00000000E+00  0.00000000E+00
  0.00000000E+00  0.00000000E+00  0.00000000E+00
  0.00000000E+00  0.00000000E+00  0.00000000E+00
  0.00000000E+00  0.00000000E+00  0.00000000E+00
  0.00000000E+00  0.00000000E+00  0.00000000E+00
  0.00000000E+00  0.00000000E+00  0.00000000E+00
  0.00000000E+00  0.00000000E+00  0.00000000E+00
  0.00000000E+00  0.00000000E+00  0.00000000E+00
  0.00000000E+00  0.00000000E+00  0.00000000E+00
  0.00000000E+00  0.00000000E+00  0.00000000E+00
  0.00000000E+00  0.00000000E+00  0.00000000E+00
  0.00000000E+00  0.00000000E+00  0.00000000E+00
  0.00000000E+00  0.00000000E+00  0.00000000E+00
  0.00000000E+00  0.00000000E+00  0.00000000E+00
  0.00000000E+00  0.00000000E+00  0.00000000E+00
  0.00000000E+00  0.00000000E+00  0.00000000E+00
  0.00000000E+00  0.00000000E+00  0.00000000E+00
  0.00000000E+00  0.00000000E+00  0.00000000E+00
  0.00000000E+00  0.00000000E+00  0.00000000E+00
  0.00000000E+00  0.00000000E+00  0.00000000E+00
