Na8 Sn6 S16
1.0
   6.7274109174696015    0.0000000000000000    0.4763211502980350
   2.7317310328770312    6.1478210137011775    0.4763211502980350
   0.0000000000000000    0.0000000000000000   17.6849986600000015
Na Sn S
8 6 16
direct
   0.0994381400000000    0.4300831700000000    0.3746132700000000 Na
   0.9005618600000000    0.5699168300000000    0.6253867300000000 Na
   0.4300831700000000    0.0994381400000000    0.8746132700000000 Na
   0.5699168300000000    0.9005618600000000    0.1253867300000000 Na
   0.4857218700000000    0.2343693600000000    0.6636704300000000 Na
   0.7656306400000000    0.5142781300000000    0.8363295700000000 Na
   0.2343693600000000    0.4857218700000000    0.1636704300000000 Na
   0.5142781300000000    0.7656306400000000    0.3363295700000000 Na
   0.2690714800000000    0.9333374500000000    0.5322485500000000 Sn
   0.0666625500000000    0.7309285200000000    0.9677514500000000 Sn
   0.7309285200000000    0.0666625500000000    0.4677514500000000 Sn
   0.9333374500000000    0.2690714800000000    0.0322485500000000 Sn
   0.0841212200000000    0.9158787800000000    0.7500000000000000 Sn
   0.9158787800000000    0.0841212200000000    0.2500000000000000 Sn
   0.1314046900000000    0.8288909300000000    0.4264856600000000 S
   0.1711090700000000    0.8685953100000000    0.0735143400000000 S
   0.3384993400000000    0.6992938200000000    0.6495205300000000 S
   0.6992938200000000    0.3384993400000000    0.1495205300000000 S
   0.3007061800000000    0.6615006600000000    0.8504794700000000 S
   0.6615006600000000    0.3007061800000000    0.3504794700000000 S
   0.2670721600000000    0.3271450500000000    0.0156855400000000 S
   0.6728549500000000    0.7329278400000000    0.4843144600000000 S
   0.7329278400000000    0.6728549500000000    0.9843144600000000 S
   0.3271450500000000    0.2670721600000000    0.5156855400000000 S
   0.7469559700000000    0.8863808200000000    0.7523450600000000 S
   0.1136191800000000    0.2530440300000000    0.7476549400000000 S
   0.2530440300000000    0.1136191800000000    0.2476549400000000 S
   0.8863808200000000    0.7469559700000000    0.2523450600000000 S
   0.8685953100000000    0.1711090700000000    0.5735143400000000 S
   0.8288909300000000    0.1314046900000000    0.9264856600000000 S
