mp-560538_Na3AlS3 NEB_v2 image 07       
   1.0000000000000000     
    12.1828203277415312    0.0000000000000000    0.0000000000000007
    -0.0000000000000005    7.5674693205415418    1.1970639402156102
     0.0000000000000000    0.0113082934473333   13.7304524371335805
   Na   Al   S 
    23     8    24
Direct
  0.0048126958067911  0.9832296962027343  0.7414370939746107
  0.7646628239664466  0.9894580367541579  0.0023541242303793
  0.8243473885283521  0.4903811813392736  0.7513217615151149
  0.7515341985933119  0.9831170887601459  0.5140721064130958
  0.9518866544376721  0.1023372019125688  0.3364856437097430
  0.2405199872100567  0.5517451427316473  0.4794061609587246
  0.8232166884469834  0.5087356943390020  0.2501177750778112
  0.2429991307184309  0.0288607298025951  0.4946503446223218
  0.7505156771314034  0.4844333561190766  0.0076002495487799
  0.3879174391102538  0.3651472102327347  0.6561921455410769
  0.2571870657376536  0.5036329601577165  0.9918057589291607
  0.2487775157841483  0.0109141868429603  0.9908721692907392
  0.7472960224645036  0.4821124116999371  0.5120017372804213
  0.1816925018003275  0.4875692712657340  0.2457465934815346
  0.0301215701806470  0.9095497097241676  0.1759549749264693
  0.5452262228327172  0.5988109113706628  0.3307159349986364
  0.3152763516630230  0.9718555093913466  0.7567390162343699
  0.3190459190995227  0.9887406835476469  0.2490441510039574
  0.1669608532929630  0.5118056742274462  0.7529778882591245
  0.4732476598931044  0.4026405127668014  0.1786545096150860
  0.6886771523481059  0.0075301139428703  0.7515554012129968
  0.5235757329188289  0.5771269903582805  0.8052263070802610
  0.6786693088574864  0.0044217641832773  0.2471801875315052
  0.0061598397366751  0.3228870037122675  0.0739146366970331
  0.0102827800408960  0.3429848438899796  0.5745005564965666
  0.5087558356766380  0.1766400579131684  0.4283764121072693
  0.4979243563903282  0.8287407523625632  0.5727073117009951
  0.5067562079321206  0.1636338005387756  0.9242443330319432
  0.4962997455995222  0.8217467406072387  0.0720841419549387
  0.9926643965268482  0.6852394063290816  0.4298605673420610
  0.9971245511716020  0.6617903232773088  0.9295466156912084
  0.3561347137041295  0.3011770358812598  0.8590495271120275
  0.1667742598865729  0.2097744908891599  0.1284789199603367
  0.3621834091891714  0.3304312119487349  0.3668157413611581
  0.1520645746612033  0.7900682138742212  0.8703539682895212
  0.9948355723780722  0.6111089836211079  0.0997234276650545
  0.6447365076656268  0.6834737600210090  0.1402800542857179
  0.8310140843946314  0.7862287367796839  0.3720628482281398
  0.1350263375005909  0.8424583465433599  0.3602354338826146
  0.3388188345213621  0.7151372534036824  0.6303949074801949
  0.4999537904799567  0.8722974411159399  0.9027754166889039
  0.6651593104606235  0.2842230059214970  0.8718126087522577
  0.8597053791780098  0.1804494874945135  0.1443605858905954
  0.1686964136794487  0.2266146288383268  0.6356246014604636
  0.0148872088196299  0.3988119031015174  0.4040275331114884
  0.6489171502920499  0.6948493490685124  0.6369810500405677
  0.5017465263372500  0.1113167349783382  0.0945799893639432
  0.6672210446213640  0.2870055249746883  0.3667085746793006
  0.8572165234354188  0.2046260340617394  0.6315407914786206
  0.0007328199612218  0.6329185916875630  0.5983246209488726
  0.9997010379957203  0.3718941101756315  0.9059437662838192
  0.8420361731468091  0.7811224072293612  0.8664126665096248
  0.5138889576074064  0.1170771674897324  0.5972860629755701
  0.3385707668070452  0.7044369020100660  0.1315794941457753
  0.4918784549347137  0.8903712760483842  0.4025721853885642

             NaN             NaN             NaN
             NaN             NaN             NaN
             NaN             NaN             NaN
             NaN             NaN             NaN
             NaN             NaN             NaN
             NaN             NaN             NaN
             NaN             NaN             NaN
             NaN             NaN             NaN
             NaN             NaN             NaN
             NaN             NaN             NaN
             NaN             NaN             NaN
             NaN             NaN             NaN
             NaN             NaN             NaN
             NaN             NaN             NaN
             NaN             NaN             NaN
             NaN             NaN             NaN
             NaN             NaN             NaN
             NaN             NaN             NaN
             NaN             NaN             NaN
             NaN             NaN             NaN
             NaN             NaN             NaN
             NaN             NaN             NaN
             NaN             NaN             NaN
             NaN             NaN             NaN
             NaN             NaN             NaN
             NaN             NaN             NaN
             NaN             NaN             NaN
             NaN             NaN             NaN
             NaN             NaN             NaN
             NaN             NaN             NaN
             NaN             NaN             NaN
             NaN             NaN             NaN
             NaN             NaN             NaN
             NaN             NaN             NaN
             NaN             NaN             NaN
             NaN             NaN             NaN
             NaN             NaN             NaN
             NaN             NaN             NaN
             NaN             NaN             NaN
             NaN             NaN             NaN
             NaN             NaN             NaN
             NaN             NaN             NaN
             NaN             NaN             NaN
             NaN             NaN             NaN
             NaN             NaN             NaN
             NaN             NaN             NaN
             NaN             NaN             NaN
             NaN             NaN             NaN
             NaN             NaN             NaN
             NaN             NaN             NaN
             NaN             NaN             NaN
             NaN             NaN             NaN
             NaN             NaN             NaN
             NaN             NaN             NaN
             NaN             NaN             NaN
