mp-560538_Na3AlS3 NEB_v2 image 07
  1.0
     12.1828203277415312      0.0000000000000000      0.0000000000000007
     -0.0000000000000005      7.5674693205415418      1.1970639402156102
      0.0000000000000000      0.0113082934473333     13.7304524371335805
  Na  Al  S
  23  8  24
Direct
  0.0048126958067897  0.9832296962027369  0.7414370939746128
  0.7646628239664466  0.9894580367541578  0.0023541242303763
  0.8243473885283529  0.4903811813392713  0.7513217615151173
  0.7515341985933101  0.9831170887601429  0.5140721064130985
  0.9518866544376724  0.1023372019125696  0.3364856437097463
  0.2405199872100545  0.5517451427316491  0.4794061609587231
  0.8232166884469858  0.5087356943389996  0.2501177750778115
  0.2429991307184297  0.0288607298025963  0.4946503446223240
  0.7505156771314053  0.4844333561190748  0.0076002495487832
  0.3879174391102556  0.3651472102327313  0.6561921455410743
  0.2571870657376517  0.5036329601577173  0.9918057589291613
  0.2487775157841465  0.0109141868429595  0.9908721692907427
  0.7472960224645006  0.4821124116999403  0.5120017372804233
  0.1816925018003296  0.4875692712657307  0.2457465934815344
  0.0301215701806486  0.9095497097241705  0.1759549749264660
  0.5452262228327200  0.5988109113706622  0.3307159349986386
  0.3152763516630223  0.9718555093913492  0.7567390162343679
  0.3190459190995209  0.9887406835476449  0.2490441510039597
  0.1669608532929664  0.5118056742274461  0.7529778882591216
  0.4732476598931045  0.4026405127668046  0.1786545096150880
  0.6886771523481094  0.0075301139428688  0.7515554012129988
  0.5235757329188266  0.5771269903582812  0.8052263070802579
  0.6786693088574860  0.0044217641832751  0.2471801875315017
  0.0061598397366718  0.3228870037122710  0.0739146366970340
  0.0102827800408966  0.3429848438899794  0.5745005564965675
  0.5087558356766375  0.1766400579131659  0.4283764121072662
  0.4979243563903283  0.8287407523625604  0.5727073117009950
  0.5067562079321227  0.1636338005387756  0.9242443330319401
  0.4962997455995211  0.8217467406072374  0.0720841419549411
  0.9926643965268455  0.6852394063290808  0.4298605673420631
  0.9971245511716049  0.6617903232773112  0.9295466156912118
  0.3561347137041318  0.3011770358812623  0.8590495271120256
  0.1667742598865741  0.2097744908891580  0.1284789199603381
  0.3621834091891718  0.3304312119487329  0.3668157413611550
  0.1520645746612029  0.7900682138742210  0.8703539682895221
  0.9948355723780736  0.6111089836211114  0.0997234276650523
  0.6447365076656291  0.6834737600210073  0.1402800542857192
  0.8310140843946346  0.7862287367796852  0.3720628482281381
  0.1350263375005907  0.8424583465433602  0.3602354338826170
  0.3388188345213635  0.7151372534036815  0.6303949074801957
  0.4999537904799534  0.8722974411159370  0.9027754166889010
  0.6651593104606266  0.2842230059215001  0.8718126087522582
  0.8597053791780075  0.1804494874945170  0.1443605858905976
  0.1686964136794504  0.2266146288383278  0.6356246014604671
  0.0148872088196280  0.3988119031015168  0.4040275331114907
  0.6489171502920486  0.6948493490685130  0.6369810500405682
  0.5017465263372518  0.1113167349783367  0.0945799893639452
  0.6672210446213639  0.2870055249746907  0.3667085746793012
  0.8572165234354158  0.2046260340617416  0.6315407914786181
  0.0007328199612187  0.6329185916875617  0.5983246209488710
  0.9997010379957185  0.3718941101756330  0.9059437662838197
  0.8420361731468073  0.7811224072293632  0.8664126665096260
  0.5138889576074097  0.1170771674897357  0.5972860629755689
  0.3385707668070468  0.7044369020100691  0.1315794941457752
  0.4918784549347160  0.8903712760483817  0.4025721853885645
