Na5InS4 bottleneck NEB image 06         
   1.0000000000000000     
     6.8330688911791304    0.0000000000000000   -0.1272470229470229
    -0.0000000000000005    8.8359252756919275    0.0000000000000005
    -0.0048172062806638    0.0000000000000000    7.8804846921668430
   Na   In   S 
     9     2     8
Direct
  0.6576833033572527  0.5369471537097112  0.6659834394665722
  0.3484746512430092  0.2976876326597662  0.3257794123656623
  0.5312053164546882  0.1666520083819591  0.5199213695591709
  0.8560943957541411  0.1278635853609345  0.5765719388781463
  0.0175453883317758  0.9741899789411548  0.4855693440581774
  0.8052079676127519  0.0363499254697643  0.2943415499621835
  0.5300859565284881  0.8901683775960052  0.9327573462030401
  0.0859909345268193  0.9478912318223891  0.9874278482999728
  0.9851551220489441  0.4957474429273248  0.0005872158214402
  0.6580429419979623  0.7525577963274017  0.1861616949083000
  0.3359598475176071  0.2560423411342754  0.8183569224913896
  0.7750191105764586  0.7612822048100867  0.8886568970137887
  0.2145369656796916  0.2452996263313523  0.1123719247181469
  0.2298197296500177  0.0176886025885992  0.6720070420829458
  0.7686450518568932  0.5139746874203936  0.3313450212895432
  0.7794036292678825  0.9801832061729030  0.3436869608504480
  0.2190826840119797  0.4846813179896046  0.6575345592794832
  0.7035915415773033  0.2600960164874024  0.8103759073385248
  0.2923078662363991  0.7425989203788035  0.1895356974369804

             NaN             NaN             NaN
             NaN             NaN             NaN
             NaN             NaN             NaN
             NaN             NaN             NaN
             NaN             NaN             NaN
             NaN             NaN             NaN
             NaN             NaN             NaN
             NaN             NaN             NaN
             NaN             NaN             NaN
             NaN             NaN             NaN
             NaN             NaN             NaN
             NaN             NaN             NaN
             NaN             NaN             NaN
             NaN             NaN             NaN
             NaN             NaN             NaN
             NaN             NaN             NaN
             NaN             NaN             NaN
             NaN             NaN             NaN
             NaN             NaN             NaN
