Na In S                                 
   1.0000000000000000     
     6.8330688911791304    0.0000000000000000   -0.1272470229470229
    -0.0000000000000005    8.8359252756919275    0.0000000000000005
    -0.0048172062806638    0.0000000000000000    7.8804846921668430
   Na   In   S 
     9     2     8
Direct
  0.6612706487870170  0.5402035938083927  0.6678920570980225
  0.1528627863022791  0.9892119662151728  0.1369825443799826
  0.3508908481872623  0.4860088953025752  0.3129578914555040
  0.6387089282752783  0.9816885116320506  0.6649762481653454
  0.3871478687036145  0.2113283496823755  0.4836357624230914
  0.0621041226792585  0.7745363554308682  0.4753627216444727
  0.7142648580246274  0.1831988542047114  0.1233408303100632
  0.2707018452003425  0.7978921563926846  0.8808659087429263
  0.9840443683584823  0.4964675441559407  0.9998521390975554
  0.6582653541451506  0.7532827368673409  0.1856674245244818
  0.3324886185502010  0.2585121726687589  0.8442009091797757
  0.7751588851920559  0.7615251468125876  0.8888492846013492
  0.2135763314424963  0.2574384822017421  0.1018189610943097
  0.2176314020664023  0.0012092887796271  0.6877688602187959
  0.7705186611802048  0.5155314996164009  0.3304355984318974
  0.7797575020221004  0.9804912583497156  0.3434492857939233
  0.2133606296512980  0.4939207849990339  0.6638613120872492
  0.7088302458777775  0.2606534282377382  0.8160211729088047
  0.2917843506833862  0.7446436944043455  0.1884187621946154

             NaN             NaN             NaN
             NaN             NaN             NaN
             NaN             NaN             NaN
             NaN             NaN             NaN
             NaN             NaN             NaN
             NaN             NaN             NaN
             NaN             NaN             NaN
             NaN             NaN             NaN
             NaN             NaN             NaN
             NaN             NaN             NaN
             NaN             NaN             NaN
             NaN             NaN             NaN
             NaN             NaN             NaN
             NaN             NaN             NaN
             NaN             NaN             NaN
             NaN             NaN             NaN
             NaN             NaN             NaN
             NaN             NaN             NaN
             NaN             NaN             NaN
