Na In S 
 1.0000000000000000
     6.8330688911791304    0.0000000000000000   -0.1272470229470229
    -0.0000000000000005    8.8359252756919275    0.0000000000000005
    -0.0048172062806638    0.0000000000000000    7.8804846921668430
 Na  In  S  
   9   2   8
Direct
  0.6612706487870137  0.5402035938083933  0.6678920570980248
  0.1528627863022813 -0.0107880337848269  0.1369825443799824
  0.3508908481872656  0.4860088953025752  0.3129578914555016
  0.6387089282752768  0.9816885116320518  0.6649762481653484
  0.3871478687036160  0.2113283496823771  0.4836357624230888
  0.0621041226792603  0.7745363554308692  0.4753627216444700
  0.7142648580246261  0.1831988542047128  0.1233408303100616
  0.2707018452003457  0.7978921563926848  0.8808659087429291
 -0.0159556316415211  0.4964675441559380 -0.0001478609024458
  0.6582653541451507  0.7532827368673426  0.1856674245244832
  0.3324886185501976  0.2585121726687597  0.8442009091797786
  0.7751588851920568  0.7615251468125892  0.8888492846013496
  0.2135763314424945  0.2574384822017410  0.1018189610943099
  0.2176314020664003  0.0012092887796278  0.6877688602187927
  0.7705186611802068  0.5155314996163977  0.3304355984318948
  0.7797575020220990  0.9804912583497161  0.3434492857939236
  0.2133606296512945  0.4939207849990324  0.6638613120872513
  0.7088302458777807  0.2606534282377416  0.8160211729088016
  0.2917843506833866  0.7446436944043427  0.1884187621946157
Cartesian
  0.0000000000000000  0.0000000000000000  0.0000000000000000
  0.0000000000000000  0.0000000000000000  0.0000000000000000
  0.0000000000000000  0.0000000000000000  0.0000000000000000
  0.0000000000000000  0.0000000000000000  0.0000000000000000
  0.0000000000000000  0.0000000000000000  0.0000000000000000
  0.0000000000000000  0.0000000000000000  0.0000000000000000
  0.0000000000000000  0.0000000000000000  0.0000000000000000
  0.0000000000000000  0.0000000000000000  0.0000000000000000
  0.0000000000000000  0.0000000000000000  0.0000000000000000
  0.0000000000000000  0.0000000000000000  0.0000000000000000
  0.0000000000000000  0.0000000000000000  0.0000000000000000
  0.0000000000000000  0.0000000000000000  0.0000000000000000
  0.0000000000000000  0.0000000000000000  0.0000000000000000
  0.0000000000000000  0.0000000000000000  0.0000000000000000
  0.0000000000000000  0.0000000000000000  0.0000000000000000
  0.0000000000000000  0.0000000000000000  0.0000000000000000
  0.0000000000000000  0.0000000000000000  0.0000000000000000
  0.0000000000000000  0.0000000000000000  0.0000000000000000
  0.0000000000000000  0.0000000000000000  0.0000000000000000
