Na5InS4 bottleneck NEB image 06
  1.0
      6.8330688911791304      0.0000000000000000     -0.1272470229470229
     -0.0000000000000005      8.8359252756919275      0.0000000000000005
     -0.0048172062806638      0.0000000000000000      7.8804846921668430
  Na  In  S
  9  2  8
Direct
  0.6576833033572559  0.5369471537097137  0.6659834394665751
  0.3484746512430075  0.2976876326597636  0.3257794123656647
  0.5312053164546913  0.1666520083819558  0.5199213695591741
  0.8560943957541447  0.1278635853609345  0.5765719388781472
  0.0175453883317767  0.9741899789411532  0.4855693440581809
  0.8052079676127535  0.0363499254697639  0.2943415499621816
  0.5300859565284909  0.8901683775960061  0.9327573462030434
  0.0859909345268207  0.9478912318223914  0.9874278482999713
  0.9851551220489446  0.4957474429273267  0.0005872158214418
  0.6580429419979607  0.7525577963274036  0.1861616949083023
  0.3359598475176047  0.2560423411342783  0.8183569224913927
  0.7750191105764614  0.7612822048100885  0.8886568970137879
  0.2145369656796940  0.2452996263313542  0.1123719247181462
  0.2298197296500177  0.0176886025886017  0.6720070420829493
  0.7686450518568935  0.5139746874203949  0.3313450212895447
  0.7794036292678806  0.9801832061729000  0.3436869608504475
  0.2190826840119818  0.4846813179896054  0.6575345592794838
  0.7035915415772999  0.2600960164874012  0.8103759073385277
  0.2923078662363970  0.7425989203788050  0.1895356974369813
