user_Na5AlS4_Na5AlS4 NEB_v2 image 03    
   1.0000000000000000     
    12.1026382039385112    0.0000000000000000    0.0000000000000007
    -0.0000000000000004    7.0938170788834114    0.0000000000000004
     0.0000000000000000    0.0000000000000000   21.6510149562332330
   Na   Al   S 
    39     8    32
Direct
  0.3493039402603628  0.8972006251542268  0.4996364162886664
  0.6513037629969602  0.4071260227235953  0.0013945307644434
  0.1517408329104697  0.0925063476106018  0.9980018519334166
  0.1574199603789310  0.4104596291143352  0.5021157015239197
  0.3484555651800179  0.5920879813585529  0.9983954224237976
  0.6506832117203558  0.1020313230749110  0.5003621331425663
  0.8482317473050429  0.5940207191329208  0.4984152031896869
  0.8478613921839298  0.9072349460572937  0.0020191706735915
  0.2919467344293523  0.5432978754681841  0.3644257424765769
  0.7117579405882140  0.0522836572265462  0.1389195364997420
  0.2110915438064964  0.4479072699923847  0.8615862440326794
  0.2132153701675819  0.0473182295385755  0.3659437856377536
  0.2876092094296894  0.9474063515520115  0.8611118855184330
  0.7062818752988420  0.4540819001129819  0.6337053308756495
  0.7866200638463923  0.9535570903347192  0.6340443141895165
  0.7886798111048492  0.5522540752296408  0.1383076919312884
  0.5139264847041716  0.5154168835126995  0.4809661507340905
  0.4466219648667575  0.0630265597715365  0.0653802039558116
  0.9463091009095947  0.4369554238280031  0.9346606349450468
  0.9477187511717915  0.0594434038411720  0.4348379467997177
  0.5529496695802294  0.9363337230528828  0.9343890157458645
  0.0530338407712847  0.9436174855519894  0.5652468383521239
  0.0534813752334600  0.5630892203421141  0.0653540378530693
  0.5829447969469115  0.3834137675845781  0.2552160015847207
  0.4159299974513431  0.8773144790300691  0.2489627538509041
  0.9131241919092972  0.6188009883867878  0.7521834756185015
  0.9172487587525211  0.8854790682589027  0.2537842150514322
  0.5831552646023326  0.1174994873895017  0.7511821243680856
  0.4164999258791084  0.6182778258573904  0.7447695295947767
  0.0846829401303708  0.1152816703580157  0.7461392968856657
  0.0857798309318980  0.3828701286798122  0.2475666751572447
  0.8343259900176605  0.1057587097887449  0.8295081580111656
  0.1662759835604462  0.6142100352025608  0.6678657319634240
  0.6610212480383453  0.8738402717848857  0.3369159004571642
  0.6638292449363021  0.6052858084750596  0.8296662741907070
  0.8344432074249823  0.3886224082425258  0.3322750704526101
  0.1656477312624247  0.8948652115385016  0.1702393745182391
  0.3361364483916773  0.3931248937553917  0.1703790697241132
  0.3416567395907393  0.1368651764525879  0.6600839934351797
  0.0396069250250051  0.8324280072906021  0.8739706517832175
  0.9562845944206231  0.3395772835406490  0.6254926372036564
  0.4577906580128257  0.1582701242334537  0.3756816059522521
  0.4580098092255867  0.3322903514999567  0.8727586370244893
  0.0437142410313172  0.6628973086675600  0.3744008644021264
  0.9599294680588670  0.1675188995197843  0.1260551521430671
  0.5413979798248150  0.6671822876670319  0.1266864282562423
  0.5426687384709012  0.8357682405589557  0.6240774558876652
  0.3687538081006707  0.2077220917353557  0.9565000617588026
  0.6412880908133900  0.7277132566670090  0.5419691021059450
  0.1296015954874932  0.7867715576816181  0.4588555084945867
  0.1305199229245204  0.7080887312910065  0.9570534371194697
  0.3622008580307252  0.2720477813635682  0.4579759352349342
  0.6307789158001924  0.7920195827562040  0.0430603106083112
  0.8690238048966989  0.2919660549009961  0.0430028150357273
  0.8699746542061675  0.2156569231815979  0.5412076517854061
  0.4470187349442440  0.8395690655870141  0.3788482842052616
  0.5525980156409389  0.3489645897701052  0.1239867405077604
  0.0512353222701734  0.1506264986476893  0.8760134731078324
  0.0545405598288440  0.3453813649698745  0.3771110342415440
  0.4467097902770263  0.6505531672301856  0.8756791274323774
  0.5567847252310898  0.1535588309684570  0.6212006624968254
  0.9464517037235964  0.6570436259385559  0.6229543739118100
  0.9485866942910306  0.8493422381287488  0.1239186960705112
  0.1359201953423366  0.2498934453107395  0.6253482465093683
  0.8588476756665315  0.7445532811844799  0.8766019190938792
  0.3606340048332370  0.7549570116942093  0.1242920927838043
  0.3623657281115555  0.7543907271887278  0.6225610504863610
  0.1406981795599265  0.2555798130903284  0.1233958448299504
  0.8640978195359494  0.7530978367623788  0.3746986250750339
  0.6370604748442972  0.2506004395634989  0.3777802743411058
  0.6386377178796394  0.2438934412732152  0.8753452015723155
  0.6311098693761465  0.7570880342825035  0.2147200841461654
  0.3689626803487798  0.2497265103511097  0.2870020401477191
  0.8645098013649957  0.2469040658229815  0.7125032165147829
  0.8711938355029503  0.2589875069847807  0.2141606180882363
  0.6318439937006133  0.7457762384255915  0.7128974818491542
  0.3684358639536711  0.2424298492986949  0.7846321478478160
  0.1281507495561911  0.7407516272818597  0.7859634140737484
  0.1356725502366132  0.7543120665762189  0.2873247126395313

             NaN             NaN             NaN
             NaN             NaN             NaN
             NaN             NaN             NaN
             NaN             NaN             NaN
             NaN             NaN             NaN
             NaN             NaN             NaN
             NaN             NaN             NaN
             NaN             NaN             NaN
             NaN             NaN             NaN
             NaN             NaN             NaN
             NaN             NaN             NaN
             NaN             NaN             NaN
             NaN             NaN             NaN
             NaN             NaN             NaN
             NaN             NaN             NaN
             NaN             NaN             NaN
             NaN             NaN             NaN
             NaN             NaN             NaN
             NaN             NaN             NaN
             NaN             NaN             NaN
             NaN             NaN             NaN
             NaN             NaN             NaN
             NaN             NaN             NaN
             NaN             NaN             NaN
             NaN             NaN             NaN
             NaN             NaN             NaN
             NaN             NaN             NaN
             NaN             NaN             NaN
             NaN             NaN             NaN
             NaN             NaN             NaN
             NaN             NaN             NaN
             NaN             NaN             NaN
             NaN             NaN             NaN
             NaN             NaN             NaN
             NaN             NaN             NaN
             NaN             NaN             NaN
             NaN             NaN             NaN
             NaN             NaN             NaN
             NaN             NaN             NaN
             NaN             NaN             NaN
             NaN             NaN             NaN
             NaN             NaN             NaN
             NaN             NaN             NaN
             NaN             NaN             NaN
             NaN             NaN             NaN
             NaN             NaN             NaN
             NaN             NaN             NaN
             NaN             NaN             NaN
             NaN             NaN             NaN
             NaN             NaN             NaN
             NaN             NaN             NaN
             NaN             NaN             NaN
             NaN             NaN             NaN
             NaN             NaN             NaN
             NaN             NaN             NaN
             NaN             NaN             NaN
             NaN             NaN             NaN
             NaN             NaN             NaN
             NaN             NaN             NaN
             NaN             NaN             NaN
             NaN             NaN             NaN
             NaN             NaN             NaN
             NaN             NaN             NaN
             NaN             NaN             NaN
             NaN             NaN             NaN
             NaN             NaN             NaN
             NaN             NaN             NaN
             NaN             NaN             NaN
             NaN             NaN             NaN
             NaN             NaN             NaN
             NaN             NaN             NaN
             NaN             NaN             NaN
             NaN             NaN             NaN
             NaN             NaN             NaN
             NaN             NaN             NaN
             NaN             NaN             NaN
             NaN             NaN             NaN
             NaN             NaN             NaN
             NaN             NaN             NaN
