user_Na5AlS4_Na5AlS4 NEB_v2 image 03
  1.0
     12.1026382039385112      0.0000000000000000      0.0000000000000007
     -0.0000000000000004      7.0938170788834114      0.0000000000000004
      0.0000000000000000      0.0000000000000000     21.6510149562332330
  Na  Al  S
  39  8  32
Direct
  0.3493039402603596  0.8972006251542288  0.4996364162886666
  0.6513037629969614  0.4071260227235969  0.0013945307644446
  0.1517408329104705  0.0925063476105986  0.9980018519334168
  0.1574199603789288  0.4104596291143355  0.5021157015239229
  0.3484555651800160  0.5920879813585526  0.9983954224237972
  0.6506832117203581  0.1020313230749098  0.5003621331425629
  0.8482317473050416  0.5940207191329206  0.4984152031896884
  0.8478613921839321  0.9072349460572904  0.0020191706735926
  0.2919467344293502  0.5432978754681832  0.3644257424765776
  0.7117579405882155  0.0522836572265493  0.1389195364997405
  0.2110915438064950  0.4479072699923838  0.8615862440326770
  0.2132153701675832  0.0473182295385736  0.3659437856377553
  0.2876092094296878  0.9474063515520140  0.8611118855184301
  0.7062818752988432  0.4540819001129796  0.6337053308756502
  0.7866200638463892  0.9535570903347207  0.6340443141895195
  0.7886798111048509  0.5522540752296393  0.1383076919312904
  0.5139264847041726  0.5154168835127025  0.4809661507340937
  0.4466219648667602  0.0630265597715383  0.0653802039558114
  0.9463091009095943  0.4369554238280026  0.9346606349450499
  0.9477187511717895  0.0594434038411709  0.4348379467997167
  0.5529496695802327  0.9363337230528799  0.9343890157458647
  0.0530338407712839  0.9436174855519892  0.5652468383521230
  0.0534813752334618  0.5630892203421122  0.0653540378530688
  0.5829447969469127  0.3834137675845816  0.2552160015847222
  0.4159299974513460  0.8773144790300683  0.2489627538509006
  0.9131241919092946  0.6188009883867862  0.7521834756185016
  0.9172487587525238  0.8854790682589000  0.2537842150514344
  0.5831552646023309  0.1174994873895024  0.7511821243680847
  0.4164999258791100  0.6182778258573884  0.7447695295947775
  0.0846829401303683  0.1152816703580173  0.7461392968856647
  0.0857798309318947  0.3828701286798115  0.2475666751572469
  0.8343259900176621  0.1057587097887483  0.8295081580111684
  0.1662759835604480  0.6142100352025588  0.6678657319634210
  0.6610212480383443  0.8738402717848821  0.3369159004571656
  0.6638292449363042  0.6052858084750614  0.8296662741907092
  0.8344432074249791  0.3886224082425260  0.3322750704526098
  0.1656477312624263  0.8948652115385027  0.1702393745182358
  0.3361364483916758  0.3931248937553947  0.1703790697241163
  0.3416567395907382  0.1368651764525896  0.6600839934351818
  0.0396069250250019  0.8324280072906042  0.8739706517832176
  0.9562845944206221  0.3395772835406470  0.6254926372036560
  0.4577906580128240  0.1582701242334556  0.3756816059522495
  0.4580098092255865  0.3322903514999548  0.8727586370244886
  0.0437142410313139  0.6628973086675630  0.3744008644021242
  0.9599294680588681  0.1675188995197870  0.1260551521430639
  0.5413979798248123  0.6671822876670284  0.1266864282562436
  0.5426687384708979  0.8357682405589566  0.6240774558876655
  0.3687538081006712  0.2077220917353581  0.9565000617588008
  0.6412880908133873  0.7277132566670064  0.5419691021059440
  0.1296015954874903  0.7867715576816146  0.4588555084945896
  0.1305199229245217  0.7080887312910095  0.9570534371194683
  0.3622008580307270  0.2720477813635649  0.4579759352349375
  0.6307789158001960  0.7920195827562012  0.0430603106083139
  0.8690238048966998  0.2919660549009976  0.0430028150357284
  0.8699746542061643  0.2156569231815946  0.5412076517854043
  0.4470187349442406  0.8395690655870141  0.3788482842052651
  0.5525980156409376  0.3489645897701050  0.1239867405077573
  0.0512353222701718  0.1506264986476926  0.8760134731078335
  0.0545405598288462  0.3453813649698760  0.3771110342415432
  0.4467097902770276  0.6505531672301829  0.8756791274323767
  0.5567847252310901  0.1535588309684543  0.6212006624968239
  0.9464517037235993  0.6570436259385545  0.6229543739118106
  0.9485866942910322  0.8493422381287522  0.1239186960705139
  0.1359201953423339  0.2498934453107383  0.6253482465093662
  0.8588476756665336  0.7445532811844783  0.8766019190938767
  0.3606340048332343  0.7549570116942076  0.1242920927838029
  0.3623657281115539  0.7543907271887260  0.6225610504863637
  0.1406981795599251  0.2555798130903250  0.1233958448299509
  0.8640978195359525  0.7530978367623757  0.3746986250750332
  0.6370604748442968  0.2506004395634994  0.3777802743411090
  0.6386377178796422  0.2438934412732126  0.8753452015723164
  0.6311098693761491  0.7570880342825029  0.2147200841461621
  0.3689626803487821  0.2497265103511072  0.2870020401477218
  0.8645098013649931  0.2469040658229786  0.7125032165147855
  0.8711938355029482  0.2589875069847797  0.2141606180882372
  0.6318439937006139  0.7457762384255910  0.7128974818491540
  0.3684358639536726  0.2424298492986972  0.7846321478478147
  0.1281507495561933  0.7407516272818595  0.7859634140737478
  0.1356725502366155  0.7543120665762196  0.2873247126395280
