NMC-411-mono Li=0.75 (4/6 Li)
1.0
      5.7361270000      0.0000000000      0.0000000000
     -1.3943991014      2.4605081868      0.0000000000
      0.1901616580      0.1077668615     14.0333188989
  Li  Ni  Mn  Co  O
  4  4  1  1  12
Direct
      0.0000000000      0.5009820000      0.0009820000
      0.0000000000      0.3338690000      0.3338690000
      0.0000000000      0.1643810000      0.6643810000
      0.0000000000      0.6828340000      0.6828340000
      0.0000000000      0.0022320000      0.0022320000
      0.0000000000      0.1640330000      0.6640330000
      0.0000000000      0.5014640000      0.0014640000
      0.0000000000      0.8347250000      0.3347250000
      0.0000000000      0.3345460000      0.3345460000
      0.0000000000      0.6637250000      0.6637250000
      0.0000000000      0.9869790000      0.9869790000
      0.0000000000      0.0218960000      0.0218960000
      0.0000000000      0.3265350000      0.3265350000
      0.0000000000      0.3409190000      0.3409180000
      0.0000000000      0.1828980000      0.6828980000
      0.0000000000      0.1589550000      0.6589550000
      0.0000000000      0.5143910000      0.0143910000
      0.0000000000      0.4862370000      0.9862370000
      0.0000000000      0.8440300000      0.3440300000
      0.0000000000      0.8137920000      0.3137920000
      0.0000000000      0.6482430000      0.6482420000
      0.0000000000      0.6772800000      0.6772800000
