Na5InS4 bottleneck NEB image 04         
   1.0000000000000000     
     6.8330688911791304    0.0000000000000000   -0.1272470229470229
    -0.0000000000000005    8.8359252756919275    0.0000000000000005
    -0.0048172062806638    0.0000000000000000    7.8804846921668430
   Na   In   S 
     9     2     8
Direct
  0.6476944938182143  0.5444811110883094  0.6705441900676874
  0.3522692518935031  0.2061349876033347  0.3225345489529019
  0.4782312327806295  0.2579179244763452  0.4533919535541173
  0.7841108676556061  0.0775652674067331  0.6123670369217109
  0.9928647591776212  0.0664074536445298  0.4943779241538451
  0.8889706104790775  0.9406187909186201  0.3588961050283856
  0.6284997932802909  0.9650532960864311  0.9770566480571503
  0.1155489784815416  0.9269901634222961  0.9697366195247952
  0.9901048904158998  0.4971651861252866  0.0003908809261546
  0.6627133191913472  0.7498919677486384  0.1884396743389019
  0.3332908756605804  0.2558439084959900  0.8145752813106029
  0.7833551357886250  0.7643928794683887  0.8931978167721653
  0.2096830962383720  0.2399943982735024  0.1074864495124004
  0.2316550847689385  0.0198509952692589  0.6608484357901432
  0.7740155857304742  0.5145907787629866  0.3375967651409866
  0.7744929404826237  0.9787267635205978  0.3496119534095783
  0.2178029234592671  0.4845121398463021  0.6549889700517468
  0.7000756319127532  0.2638454646072006  0.8061541531342300
  0.2971887982713568  0.7379512275751381  0.1937859880351311

             NaN             NaN             NaN
             NaN             NaN             NaN
             NaN             NaN             NaN
             NaN             NaN             NaN
             NaN             NaN             NaN
             NaN             NaN             NaN
             NaN             NaN             NaN
             NaN             NaN             NaN
             NaN             NaN             NaN
             NaN             NaN             NaN
             NaN             NaN             NaN
             NaN             NaN             NaN
             NaN             NaN             NaN
             NaN             NaN             NaN
             NaN             NaN             NaN
             NaN             NaN             NaN
             NaN             NaN             NaN
             NaN             NaN             NaN
             NaN             NaN             NaN
