Na In S                                 
   1.0000000000000000     
     6.8330688911791304    0.0000000000000000   -0.1272470229470229
    -0.0000000000000005    8.8359252756919275    0.0000000000000005
    -0.0048172062806638    0.0000000000000000    7.8804846921668430
   Na   In   S 
     9     2     8
Direct
  0.6502243899909743  0.5521767784266629  0.6749001831087753
  0.2213708051273215  0.9954459459558649  0.1984522176391224
  0.3494754188646283  0.4684358356112170  0.3170511043691064
  0.6392291615341179  0.9802937808251713  0.6711053211872127
  0.5733434373370088  0.2132379136283760  0.4868847910084853
  0.0601980408794631  0.7661753156430180  0.4793937803351014
  0.7514859820171367  0.1604736596622161  0.1011535222393007
  0.2393155941658165  0.8261827106545496  0.8983626602621939
  0.9890358684770604  0.4977483368818980  0.9998518317825287
  0.6625241121818064  0.7507789942139169  0.1878085206816920
  0.3255785382484930  0.2569641781431926  0.8261813685929624
  0.7833936849280363  0.7648132177676459  0.8935206214296727
  0.2068255457714940  0.2518398497489329  0.1002574134460446
  0.2245398055925705  0.0155751210491175  0.6656124730758606
  0.7773606763249390  0.5196646189812881  0.3346917077346347
  0.7748706643169996  0.9790983020762596  0.3492830563158265
  0.2142891457024234  0.4870786111500962  0.6569074387203599
  0.7087862514489700  0.2664151292897472  0.8280532859764307
  0.2966117764191978  0.7393246637984561  0.1929916627081170

             NaN             NaN             NaN
             NaN             NaN             NaN
             NaN             NaN             NaN
             NaN             NaN             NaN
             NaN             NaN             NaN
             NaN             NaN             NaN
             NaN             NaN             NaN
             NaN             NaN             NaN
             NaN             NaN             NaN
             NaN             NaN             NaN
             NaN             NaN             NaN
             NaN             NaN             NaN
             NaN             NaN             NaN
             NaN             NaN             NaN
             NaN             NaN             NaN
             NaN             NaN             NaN
             NaN             NaN             NaN
             NaN             NaN             NaN
             NaN             NaN             NaN
