Na5InS4 bottleneck NEB image 04
  1.0
      6.8330688911791304      0.0000000000000000     -0.1272470229470229
     -0.0000000000000005      8.8359252756919275      0.0000000000000005
     -0.0048172062806638      0.0000000000000000      7.8804846921668430
  Na  In  S
  9  2  8
Direct
  0.6476944938182153  0.5444811110883107  0.6705441900676891
  0.3522692518935011  0.2061349876033372  0.3225345489528986
  0.4782312327806327  0.2579179244763486  0.4533919535541198
  0.7841108676556081  0.0775652674067331  0.6123670369217096
  0.9928647591776186  0.0664074536445267  0.4943779241538453
  0.8889706104790778  0.9406187909186231  0.3588961050283822
  0.6284997932802885  0.9650532960864324  0.9770566480571525
  0.1155489784815419  0.9269901634222927  0.9697366195247975
  0.9901048904158966  0.4971651861252894  0.0003908809261521
  0.6627133191913495  0.7498919677486360  0.1884396743388996
  0.3332908756605779  0.2558439084959897  0.8145752813106037
  0.7833551357886219  0.7643928794683903  0.8931978167721636
  0.2096830962383719  0.2399943982734996  0.1074864495123993
  0.2316550847689403  0.0198509952692571  0.6608484357901437
  0.7740155857304737  0.5145907787629898  0.3375967651409852
  0.7744929404826232  0.9787267635205943  0.3496119534095772
  0.2178029234592677  0.4845121398463037  0.6549889700517471
  0.7000756319127531  0.2638454646072000  0.8061541531342300
  0.2971887982713587  0.7379512275751402  0.1937859880351334
