Na In S 
 1.0000000000000000
     6.8330688911791304    0.0000000000000000   -0.1272470229470229
    -0.0000000000000005    8.8359252756919275    0.0000000000000005
    -0.0048172062806638    0.0000000000000000    7.8804846921668430
 Na  In  S  
   9   2   8
Direct
  0.6502243899909729  0.5521767784266628  0.6749001831087718
  0.2213708051273204 -0.0045540540441369  0.1984522176391204
  0.3494754188646251  0.4684358356112185  0.3170511043691062
  0.6392291615341188  0.9802937808251702  0.6711053211872121
  0.5733434373370115  0.2132379136283772  0.4868847910084856
  0.0601980408794653  0.7661753156430171  0.4793937803351033
  0.7514859820171380  0.1604736596622142  0.1011535222392995
  0.2393155941658178  0.8261827106545472  0.8983626602621910
 -0.0109641315229421  0.4977483368819004 -0.0001481682174740
  0.6625241121818046  0.7507789942139168  0.1878085206816953
  0.3255785382484920  0.2569641781431912  0.8261813685929654
  0.7833936849280362  0.7648132177676454  0.8935206214296694
  0.2068255457714933  0.2518398497489325  0.1002574134460414
  0.2245398055925704  0.0155751210491194  0.6656124730758625
  0.7773606763249368  0.5196646189812889  0.3346917077346312
  0.7748706643169965  0.9790983020762576  0.3492830563158261
  0.2142891457024209  0.4870786111500974  0.6569074387203586
  0.7087862514489702  0.2664151292897506  0.8280532859764278
  0.2966117764191991  0.7393246637984593  0.1929916627081164
Cartesian
  0.0000000000000000  0.0000000000000000  0.0000000000000000
  0.0000000000000000  0.0000000000000000  0.0000000000000000
  0.0000000000000000  0.0000000000000000  0.0000000000000000
  0.0000000000000000  0.0000000000000000  0.0000000000000000
  0.0000000000000000  0.0000000000000000  0.0000000000000000
  0.0000000000000000  0.0000000000000000  0.0000000000000000
  0.0000000000000000  0.0000000000000000  0.0000000000000000
  0.0000000000000000  0.0000000000000000  0.0000000000000000
  0.0000000000000000  0.0000000000000000  0.0000000000000000
  0.0000000000000000  0.0000000000000000  0.0000000000000000
  0.0000000000000000  0.0000000000000000  0.0000000000000000
  0.0000000000000000  0.0000000000000000  0.0000000000000000
  0.0000000000000000  0.0000000000000000  0.0000000000000000
  0.0000000000000000  0.0000000000000000  0.0000000000000000
  0.0000000000000000  0.0000000000000000  0.0000000000000000
  0.0000000000000000  0.0000000000000000  0.0000000000000000
  0.0000000000000000  0.0000000000000000  0.0000000000000000
  0.0000000000000000  0.0000000000000000  0.0000000000000000
  0.0000000000000000  0.0000000000000000  0.0000000000000000
