Na Al S                                 
   1.0000000000000000     
    12.1828203277415312    0.0000000000000000    0.0000000000000007
    -0.0000000000000005    7.5674693205415418    1.1970639402156102
     0.0000000000000000    0.0113082934473333   13.7304524371335805
   Na   Al   S 
    23     8    24
Direct
  0.9807870280202096  0.0698723489630382  0.8004016789547350
  0.7685758002844949  0.9241781685296573  0.9942958510491025
  0.8008045891629223  0.5374561527847490  0.7544025472557863
  0.7361130765275945  0.9189769740756049  0.5297067972958871
  0.9114580213217209  0.1063319604228994  0.3754875172994616
  0.2391012178032526  0.5775834835420426  0.4807270359446036
  0.8225860587841680  0.5051790912168954  0.2514431800987964
  0.2637459643284146  0.0766311114918139  0.4803223422734391
  0.7414756683688921  0.4878505954449111  0.0062063369686314
  0.4136720557693465  0.3889426922778938  0.6360952533009154
  0.2557521034307726  0.5065874770702834  0.9781753219622900
  0.2501747855774283  0.0056790941287019  0.9781116759673196
  0.7616419786396875  0.4174350303340901  0.5297789942166276
  0.1953098425387054  0.4617149336186657  0.2512263742073486
  0.0517136981924295  0.9274554936927686  0.2032651277973088
  0.5868036669722514  0.6089714600949350  0.3700798466550026
  0.3290110403485116  0.9985529665164279  0.7534349718423528
  0.0867613973902479  0.8900894295317201  0.6362721852064581
  0.1737659892809091  0.4948676562595935  0.7537998372192263
  0.4855322400943578  0.4129727567822030  0.1985089835785629
  0.6924377302314824  0.0326435650944816  0.7589981628900162
  0.5183764450901265  0.5834131659757844  0.8037363449315365
  0.6632539788504772  0.9906019203455614  0.2542502807981180
  0.0008613509273303  0.3002926281745175  0.0515123924734340
  0.0202594899205906  0.3136975993546756  0.5768210125888729
  0.5241695428305135  0.1708639288013458  0.4482528788769287
  0.4793770740386734  0.8184713031997859  0.5714306081107736
  0.5138321892653011  0.1736785806908969  0.9139760112317177
  0.5066314191025327  0.8392856196960565  0.0612569652498109
  0.9746887624367560  0.6749531653854177  0.4513089767844676
  0.9889889675992478  0.6938320200267754  0.8995763934107828
  0.3645896059423634  0.3096416563987034  0.8381366284563683
  0.1931854436059481  0.1792982768011342  0.1214388573869982
  0.3962927668386342  0.3744612387122288  0.4085567287227505
  0.1415011542842635  0.8223057244613088  0.8329228149942409
  0.9779665586374549  0.5781611217880496  0.0894569580599267
  0.6388323739019697  0.6838418697971136  0.1533867943699150
  0.8075077089244331  0.7589665070113583  0.3819517431014887
  0.1073498758817593  0.8837330191607933  0.4187884528079096
  0.3154678706235998  0.7394738975734114  0.6319425096699334
  0.5137507094423270  0.8904582313015794  0.8878654977891429
  0.6634203457121899  0.2949894639715041  0.8672782156136236
  0.8268551363221590  0.1590586084269674  0.1442527230597008
  0.1863912873420546  0.2357306995495136  0.6335994570595389
  0.0299078599360740  0.4002710346496983  0.4162589413195690
  0.6064849339078933  0.6188855855554394  0.6143775207848279
  0.5068313069370163  0.1182592635902822  0.0892143858496226
  0.6794325892302595  0.2565511119196984  0.3852450287113669
  0.8908639243503984  0.1151074557876441  0.6151077988978599
  0.9675601162555338  0.5891510545944669  0.6093546641966725
  0.9987384298085757  0.3935879659827179  0.8677784781044338
  0.8159853503069385  0.8117820413827772  0.8636038722363821
  0.5341719596883578  0.0865312502455282  0.6089123929898008
  0.3523455867978242  0.7050690557807542  0.1207178347566753
  0.4713648058516782  0.9076803667411610  0.4117528047453050

             NaN             NaN             NaN
             NaN             NaN             NaN
             NaN             NaN             NaN
             NaN             NaN             NaN
             NaN             NaN             NaN
             NaN             NaN             NaN
             NaN             NaN             NaN
             NaN             NaN             NaN
             NaN             NaN             NaN
             NaN             NaN             NaN
             NaN             NaN             NaN
             NaN             NaN             NaN
             NaN             NaN             NaN
             NaN             NaN             NaN
             NaN             NaN             NaN
             NaN             NaN             NaN
             NaN             NaN             NaN
             NaN             NaN             NaN
             NaN             NaN             NaN
             NaN             NaN             NaN
             NaN             NaN             NaN
             NaN             NaN             NaN
             NaN             NaN             NaN
             NaN             NaN             NaN
             NaN             NaN             NaN
             NaN             NaN             NaN
             NaN             NaN             NaN
             NaN             NaN             NaN
             NaN             NaN             NaN
             NaN             NaN             NaN
             NaN             NaN             NaN
             NaN             NaN             NaN
             NaN             NaN             NaN
             NaN             NaN             NaN
             NaN             NaN             NaN
             NaN             NaN             NaN
             NaN             NaN             NaN
             NaN             NaN             NaN
             NaN             NaN             NaN
             NaN             NaN             NaN
             NaN             NaN             NaN
             NaN             NaN             NaN
             NaN             NaN             NaN
             NaN             NaN             NaN
             NaN             NaN             NaN
             NaN             NaN             NaN
             NaN             NaN             NaN
             NaN             NaN             NaN
             NaN             NaN             NaN
             NaN             NaN             NaN
             NaN             NaN             NaN
             NaN             NaN             NaN
             NaN             NaN             NaN
             NaN             NaN             NaN
             NaN             NaN             NaN
