Na Al S 
 1.0000000000000000
    12.1828203277415312   -0.0000000000000000    0.0000000000000007
    -0.0000000000000005    7.5674693205415418    1.1970639402156102
     0.0000000000000000    0.0113082934473333   13.7304524371335805
 Na  Al  S  
  23   8  24
Direct
  0.9807870280202092  0.0698723489630385  0.8004016789547358
  0.7685758002844967  0.9241781685296577 -0.0057041489508985
  0.8008045891629190  0.5374561527847515  0.7544025472557876
  0.7361130765275922  0.9189769740756057  0.5297067972958903
  0.9114580213217242  0.1063319604229025  0.3754875172994609
  0.2391012178032542  0.5775834835420393  0.4807270359446058
  0.8225860587841700  0.5051790912168957  0.2514431800987971
  0.2637459643284144  0.0766311114918119  0.4803223422734387
  0.7414756683688907  0.4878505954449122  0.0062063369686346
  0.4136720557693432  0.3889426922778967  0.6360952533009152
  0.2557521034307726  0.5065874770702816  0.9781753219622901
  0.2501747855774269  0.0056790941286987  0.9781116759673223
  0.7616419786396863  0.4174350303340921  0.5297789942166271
  0.1953098425387061  0.4617149336186649  0.2512263742073453
  0.0517136981924309  0.9274554936927663  0.2032651277973081
  0.5868036669722533  0.6089714600949354  0.3700798466550035
  0.3290110403485099  0.9985529665164252  0.7534349718423508
  0.0867613973902489  0.8900894295317233  0.6362721852064580
  0.1737659892809056  0.4948676562595959  0.7537998372192295
  0.4855322400943595  0.4129727567822047  0.1985089835785609
  0.6924377302314850  0.0326435650944851  0.7589981628900184
  0.5183764450901247  0.5834131659757826  0.8037363449315399
  0.6632539788504737 -0.0093980796544399  0.2542502807981158
  0.0008613509273278  0.3002926281745193  0.0515123924734307
  0.0202594899205921  0.3136975993546781  0.5768210125888760
  0.5241695428305106  0.1708639288013441  0.4482528788769273
  0.4793770740386755  0.8184713031997841  0.5714306081107748
  0.5138321892653033  0.1736785806908980  0.9139760112317157
  0.5066314191025356  0.8392856196960559  0.0612569652498133
  0.9746887624367534  0.6749531653854171  0.4513089767844661
  0.9889889675992452  0.6938320200267737  0.8995763934107863
  0.3645896059423626  0.3096416563987064  0.8381366284563692
  0.1931854436059503  0.1792982768011326  0.1214388573869966
  0.3962927668386323  0.3744612387122284  0.4085567287227494
  0.1415011542842603  0.8223057244613077  0.8329228149942437
 -0.0220334413625432  0.5781611217880505  0.0894569580599274
  0.6388323739019701  0.6838418697971150  0.1533867943699176
  0.8075077089244357  0.7589665070113564  0.3819517431014884
  0.1073498758817597  0.8837330191607965  0.4187884528079109
  0.3154678706236002  0.7394738975734081  0.6319425096699364
  0.5137507094423239  0.8904582313015795  0.8878654977891395
  0.6634203457121900  0.2949894639715065  0.8672782156136261
  0.8268551363221587  0.1590586084269683  0.1442527230597024
  0.1863912873420513  0.2357306995495103  0.6335994570595375
  0.0299078599360720  0.4002710346496949  0.4162589413195686
  0.6064849339078904  0.6188855855554378  0.6143775207848293
  0.5068313069370181  0.1182592635902855  0.0892143858496243
  0.6794325892302627  0.2565511119196989  0.3852450287113678
  0.8908639243503969  0.1151074557876474  0.6151077988978577
  0.9675601162555332  0.5891510545944658  0.6093546641966722
  0.9987384298085774  0.3935879659827174  0.8677784781044332
  0.8159853503069355  0.8117820413827789  0.8636038722363791
  0.5341719596883613  0.0865312502455292  0.6089123929898026
  0.3523455867978256  0.7050690557807558  0.1207178347566763
  0.4713648058516815  0.9076803667411641  0.4117528047453077
Cartesian
  0.0000000000000000  0.0000000000000000  0.0000000000000000
  0.0000000000000000  0.0000000000000000  0.0000000000000000
  0.0000000000000000  0.0000000000000000  0.0000000000000000
  0.0000000000000000  0.0000000000000000  0.0000000000000000
  0.0000000000000000  0.0000000000000000  0.0000000000000000
  0.0000000000000000  0.0000000000000000  0.0000000000000000
  0.0000000000000000  0.0000000000000000  0.0000000000000000
  0.0000000000000000  0.0000000000000000  0.0000000000000000
  0.0000000000000000  0.0000000000000000  0.0000000000000000
  0.0000000000000000  0.0000000000000000  0.0000000000000000
  0.0000000000000000  0.0000000000000000  0.0000000000000000
  0.0000000000000000  0.0000000000000000  0.0000000000000000
  0.0000000000000000  0.0000000000000000  0.0000000000000000
  0.0000000000000000  0.0000000000000000  0.0000000000000000
  0.0000000000000000  0.0000000000000000  0.0000000000000000
  0.0000000000000000  0.0000000000000000  0.0000000000000000
  0.0000000000000000  0.0000000000000000  0.0000000000000000
  0.0000000000000000  0.0000000000000000  0.0000000000000000
  0.0000000000000000  0.0000000000000000  0.0000000000000000
  0.0000000000000000  0.0000000000000000  0.0000000000000000
  0.0000000000000000  0.0000000000000000  0.0000000000000000
  0.0000000000000000  0.0000000000000000  0.0000000000000000
  0.0000000000000000  0.0000000000000000  0.0000000000000000
  0.0000000000000000  0.0000000000000000  0.0000000000000000
  0.0000000000000000  0.0000000000000000  0.0000000000000000
  0.0000000000000000  0.0000000000000000  0.0000000000000000
  0.0000000000000000  0.0000000000000000  0.0000000000000000
  0.0000000000000000  0.0000000000000000  0.0000000000000000
  0.0000000000000000  0.0000000000000000  0.0000000000000000
  0.0000000000000000  0.0000000000000000  0.0000000000000000
  0.0000000000000000  0.0000000000000000  0.0000000000000000
  0.0000000000000000  0.0000000000000000  0.0000000000000000
  0.0000000000000000  0.0000000000000000  0.0000000000000000
  0.0000000000000000  0.0000000000000000  0.0000000000000000
  0.0000000000000000  0.0000000000000000  0.0000000000000000
  0.0000000000000000  0.0000000000000000  0.0000000000000000
  0.0000000000000000  0.0000000000000000  0.0000000000000000
  0.0000000000000000  0.0000000000000000  0.0000000000000000
  0.0000000000000000  0.0000000000000000  0.0000000000000000
  0.0000000000000000  0.0000000000000000  0.0000000000000000
  0.0000000000000000  0.0000000000000000  0.0000000000000000
  0.0000000000000000  0.0000000000000000  0.0000000000000000
  0.0000000000000000  0.0000000000000000  0.0000000000000000
  0.0000000000000000  0.0000000000000000  0.0000000000000000
  0.0000000000000000  0.0000000000000000  0.0000000000000000
  0.0000000000000000  0.0000000000000000  0.0000000000000000
  0.0000000000000000  0.0000000000000000  0.0000000000000000
  0.0000000000000000  0.0000000000000000  0.0000000000000000
  0.0000000000000000  0.0000000000000000  0.0000000000000000
  0.0000000000000000  0.0000000000000000  0.0000000000000000
  0.0000000000000000  0.0000000000000000  0.0000000000000000
  0.0000000000000000  0.0000000000000000  0.0000000000000000
  0.0000000000000000  0.0000000000000000  0.0000000000000000
  0.0000000000000000  0.0000000000000000  0.0000000000000000
  0.0000000000000000  0.0000000000000000  0.0000000000000000
