Na Al S 
 1.0000000000000000
    12.1828203277415312    0.0000000000000000    0.0000000000000007
    -0.0000000000000005    7.5674693205415418    1.1970639402156102
     0.0000000000000000    0.0113082934473333   13.7304524371335805
 Na  Al  S  
  23   8  24
Direct
  0.9547226004378693  0.0779786951604512  0.8325754713241638
  0.7490509513963455  0.0926852248821658 -0.0081043617664510
  0.7977550954439760  0.4882577615602200  0.7752849257675516
  0.7308667275640012  0.9959150473345235  0.4967958522814936
  0.9412783124800957  0.0887352567114587  0.3361564196572842
  0.2489141100255884  0.5324636646979497  0.4868790175560606
  0.8200542211733769  0.4999875606958838  0.2288290252811222
  0.2501053797430028  0.0320632287373490  0.4841172655032870
  0.4805058396208994  0.4422275298745462  0.7034688211809689
  0.2508241839701788  0.5169652597217508  0.9893933470759397
  0.2389261588686184  0.0035860348508817  0.9898772312733836
  0.7441547436477770  0.4218080518674116  0.5034480781708076
  0.1740832953973779  0.4992975016525265  0.2435566679035309
  0.0305103001218953  0.9102920238710760  0.1754278574787564
  0.5884112679899617  0.6257060855283304  0.3410792452641807
  0.3162293908855131  0.0642508017033653  0.7488604549463534
  0.0621605855558353  0.8921347033280946  0.6623305897686442
  0.3097685193012378  0.0746224557110427  0.2408622628064857
  0.1721765485904127  0.4927388178834446  0.7503583046765971
  0.4792874370983116  0.4332560752935348  0.1825138921578204
  0.6754538488366585 -0.0062448018922379  0.7451720420265187
  0.6222659044953063  0.5709140597805733  0.9393862354643645
  0.6759927489148332  0.0154961080682118  0.2379034122969692
 -0.0048152942668142  0.3314156953320860  0.0666254471221633
 -0.0026842251791834  0.3249440598542422  0.5649500361310675
  0.5035474338471685  0.1776681688302587  0.4259733515065722
  0.4776129953344773  0.8462897396574095  0.5664893104032914
  0.4991302755838938  0.1584074120680130  0.9285344761226400
  0.4897698284869089  0.8375308028528182  0.0724196712171546
  0.9911080731176690  0.6736448646712511  0.4051451793760834
  0.8944813403935573  0.6341401729883658  0.9938228285276945
  0.3473417628004033  0.3079011142213524  0.8774483300399454
  0.1512564304509738  0.2195593974582149  0.1088421125641195
  0.3595817305067566  0.3430835866648848  0.3693693024482751
  0.1387984209197635  0.8014040706208749  0.8558530678552091
 -0.0032262216389040  0.6176060705325069  0.0918540252074582
  0.6386263340320117  0.6978269134531940  0.1400400226904290
  0.8218166398788062  0.7807566355889553  0.3523046011969612
  0.1295212225363487  0.8296793934951164  0.3641411531700629
  0.3240230255950803  0.7231682430431685  0.6292906054414487
  0.4888956518282714  0.8881900970651451  0.9028544621120544
  0.6479553700538724  0.2708016962680685  0.8586177682605302
  0.8652110133504516  0.1778246750758599  0.1460728730654150
  0.1512648657275551  0.2220181581950171  0.6184836939363636
  0.0053063649679537  0.3864873900422678  0.3964483116169293
  0.6206073892422180  0.7085472303621467  0.6337316875658885
  0.5042498733210502  0.1291734044892278  0.0884892095792068
  0.6610348636507023  0.2759517836196702  0.3588314139087505
  0.8589114433235738  0.1497661276756718  0.6278846994572599
  0.9250225193494152  0.6428201181092171  0.6021426989350587
 -0.0085596870045494  0.3777898057849312  0.9005240414427587
  0.8240285066556775  0.8730829274038654  0.8374170879177901
  0.5060298245889071  0.1197805943639992  0.5923208239980712
  0.3296782350803932  0.7199394102166211  0.1253279518142411
  0.4800922485034079  0.8955855620938745  0.3980805990559626
Cartesian
  0.0000000000000000  0.0000000000000000  0.0000000000000000
  0.0000000000000000  0.0000000000000000  0.0000000000000000
  0.0000000000000000  0.0000000000000000  0.0000000000000000
  0.0000000000000000  0.0000000000000000  0.0000000000000000
  0.0000000000000000  0.0000000000000000  0.0000000000000000
  0.0000000000000000  0.0000000000000000  0.0000000000000000
  0.0000000000000000  0.0000000000000000  0.0000000000000000
  0.0000000000000000  0.0000000000000000  0.0000000000000000
  0.0000000000000000  0.0000000000000000  0.0000000000000000
  0.0000000000000000  0.0000000000000000  0.0000000000000000
  0.0000000000000000  0.0000000000000000  0.0000000000000000
  0.0000000000000000  0.0000000000000000  0.0000000000000000
  0.0000000000000000  0.0000000000000000  0.0000000000000000
  0.0000000000000000  0.0000000000000000  0.0000000000000000
  0.0000000000000000  0.0000000000000000  0.0000000000000000
  0.0000000000000000  0.0000000000000000  0.0000000000000000
  0.0000000000000000  0.0000000000000000  0.0000000000000000
  0.0000000000000000  0.0000000000000000  0.0000000000000000
  0.0000000000000000  0.0000000000000000  0.0000000000000000
  0.0000000000000000  0.0000000000000000  0.0000000000000000
  0.0000000000000000  0.0000000000000000  0.0000000000000000
  0.0000000000000000  0.0000000000000000  0.0000000000000000
  0.0000000000000000  0.0000000000000000  0.0000000000000000
  0.0000000000000000  0.0000000000000000  0.0000000000000000
  0.0000000000000000  0.0000000000000000  0.0000000000000000
  0.0000000000000000  0.0000000000000000  0.0000000000000000
  0.0000000000000000  0.0000000000000000  0.0000000000000000
  0.0000000000000000  0.0000000000000000  0.0000000000000000
  0.0000000000000000  0.0000000000000000  0.0000000000000000
  0.0000000000000000  0.0000000000000000  0.0000000000000000
  0.0000000000000000  0.0000000000000000  0.0000000000000000
  0.0000000000000000  0.0000000000000000  0.0000000000000000
  0.0000000000000000  0.0000000000000000  0.0000000000000000
  0.0000000000000000  0.0000000000000000  0.0000000000000000
  0.0000000000000000  0.0000000000000000  0.0000000000000000
  0.0000000000000000  0.0000000000000000  0.0000000000000000
  0.0000000000000000  0.0000000000000000  0.0000000000000000
  0.0000000000000000  0.0000000000000000  0.0000000000000000
  0.0000000000000000  0.0000000000000000  0.0000000000000000
  0.0000000000000000  0.0000000000000000  0.0000000000000000
  0.0000000000000000  0.0000000000000000  0.0000000000000000
  0.0000000000000000  0.0000000000000000  0.0000000000000000
  0.0000000000000000  0.0000000000000000  0.0000000000000000
  0.0000000000000000  0.0000000000000000  0.0000000000000000
  0.0000000000000000  0.0000000000000000  0.0000000000000000
  0.0000000000000000  0.0000000000000000  0.0000000000000000
  0.0000000000000000  0.0000000000000000  0.0000000000000000
  0.0000000000000000  0.0000000000000000  0.0000000000000000
  0.0000000000000000  0.0000000000000000  0.0000000000000000
  0.0000000000000000  0.0000000000000000  0.0000000000000000
  0.0000000000000000  0.0000000000000000  0.0000000000000000
  0.0000000000000000  0.0000000000000000  0.0000000000000000
  0.0000000000000000  0.0000000000000000  0.0000000000000000
  0.0000000000000000  0.0000000000000000  0.0000000000000000
  0.0000000000000000  0.0000000000000000  0.0000000000000000
