Na3AlS3 bottleneck NEB image 01
  1.0
     12.1828203277415312      0.0000000000000000      0.0000000000000007
     -0.0000000000000005      7.5674693205415418      1.1970639402156102
      0.0000000000000000      0.0113082934473333     13.7304524371335805
  Na  Al  S
  23  8  24
Direct
  0.9597984214032447  0.0852783718537775  0.8224771271142983
  0.7562164478055704  0.0638548625057638  0.9757002873726528
  0.8041606508635016  0.5636872303041054  0.7290956090869647
  0.7576200380307012  0.9862046393878915  0.4879796862472142
  0.9763479524828104  0.1295213673556406  0.3494606815435978
  0.2097665013619829  0.5250405098449867  0.4622553742511560
  0.8616601112204422  0.4488823579618879  0.2557316875826534
  0.3021852908018778  0.0825374081369147  0.4340127725277960
  0.4796080508837997  0.4365003039172485  0.7063752448444320
  0.2549690768781777  0.5121824624743666  0.9857292118572802
  0.2405968371632506  0.0043514396099450  0.9852671503604272
  0.7528388274234644  0.4558590257687768  0.5171047678441409
  0.1783285439024653  0.4869675914590513  0.2435315217032468
  0.0313855267160880  0.9079066187595443  0.1750194620302516
  0.5909816859145876  0.6244942320367909  0.3438480803004844
  0.3235668714711133  0.9961440608412906  0.7490234767380545
  0.0663811381170586  0.8869356853630925  0.6599761560420629
  0.3138386126180099  0.9982153847024261  0.2451947058901965
  0.1779927113578724  0.4826596441827956  0.7502119156637290
  0.4727944144834294  0.4225586756308941  0.1864460548331882
  0.6753390139675863  0.9988723153633332  0.7450321754173813
  0.6567954230765475  0.5753095481413336  0.9462945555705304
  0.6748643531582149  0.0194536620608048  0.2385554243966193
  0.0019746610345762  0.3252592678906137  0.0687300229826577
  0.0041993011255826  0.3185710856442688  0.5668640927552711
  0.5018196258697462  0.1799821260459751  0.4258534123005608
  0.4867129235538600  0.8345690646441111  0.5708324636700461
  0.4995373579563423  0.1673591571448809  0.9234591267614571
  0.4892865637947650  0.8360231310142454  0.0738138185423035
  0.9843209925810248  0.6676854828838763  0.4243218102700057
  0.9880914750198185  0.6671388287704368  0.9233013538154449
  0.3444030127829264  0.2884295221236254  0.8600936626886092
  0.1631319860233240  0.2109135038145075  0.1211869833563399
  0.3544381586424507  0.3231512626279475  0.3588820200828405
  0.1388412616897551  0.8000738138889214  0.8543417695724244
  0.9978857582437248  0.6140630993306063  0.0924761309913749
  0.6374712074587447  0.6954663549680284  0.1418019512833860
  0.8233232100305280  0.7719916315639488  0.3638478708896696
  0.1293181452493413  0.8275805606038569  0.3645665450978073
  0.3278163347673076  0.7201246080641019  0.6296905369233351
  0.4987267457318950  0.8737342125560208  0.9050411975260216
  0.6529042602946640  0.2913825242277379  0.8580643213209997
  0.8611805818506537  0.1749175207244792  0.1430353449537396
  0.1633447632441165  0.2140057731909958  0.6275962297665389
  0.0065166214779284  0.3842592653103612  0.3971151194038475
  0.6385748407224427  0.6883210138827661  0.6256333260020781
  0.4998374997987601  0.1276096342154029  0.0933706584382164
  0.6633947777480863  0.2825850232540300  0.3664587181243085
  0.8592831672403528  0.1612137941187114  0.6276312526716583
  0.9806501111343350  0.6035310546225127  0.5939685246388365
  0.9922396219135905  0.3776565959470367  0.8993879115505086
  0.8331508445498137  0.7991946578772657  0.8680839294345830
  0.5002714265959703  0.1245199731176459  0.5953209883061170
  0.3296362238083873  0.7172448772085852  0.1266833336374701
  0.4814724076154043  0.8929445157810254  0.4007253448058736
