Na1 Si1 S2                              
   1.0000000000000000     
     1.7675443044480628    1.0204921799206748    6.6963567765093570
    -1.7675443044480628    1.0204921799206748    6.6963567765093570
    -0.0000000000000000   -2.0409843599416089    6.6963567765094689
   Na   Si   S 
     1     1     2
Direct
  0.5000000928597430  0.5000000928597430  0.5000000928597430
  0.0000000000000000  0.0000000000000000  0.0000000000000000
  0.7324881271028624  0.7324881271028624  0.7324881271029287
  0.2660187092725081  0.2660187092725081  0.2660187092725153

  0.00000000E+00  0.00000000E+00  0.00000000E+00
  0.00000000E+00  0.00000000E+00  0.00000000E+00
  0.00000000E+00  0.00000000E+00  0.00000000E+00
  0.00000000E+00  0.00000000E+00  0.00000000E+00
