Na1 Si1 S2
1.0
   1.7809390651302863    1.0282256486057646    6.6416333155168346
  -1.7809390651302863    1.0282256486057646    6.6416333155168346
   0.0000000000000000   -2.0564512973117202    6.6416333155168195
Na Si S
1 1 2
direct
   0.5000000928597430    0.5000000928597430    0.5000000928597430 Na
   0.0000000000000000    0.0000000000000000    0.0000000000000000 Si
   0.7351346982516085    0.7351346982516085    0.7351346982516086 S
   0.2648654874678775    0.2648654874678775    0.2648654874678773 S
