user_Na5AlS4_Na5AlS4 NEB image 06       
   1.0000000000000000     
    12.1026382039385112    0.0000000000000000    0.0000000000000007
    -0.0000000000000004    7.0938170788834114    0.0000000000000004
     0.0000000000000000    0.0000000000000000   21.6510149562332330
   Na   Al   S 
    39     8    32
Direct
  0.3513533425301144  0.8981257337004902  0.4991373544533184
  0.6513767374148003  0.4079075607385866  0.0017904940138396
  0.1522734420767235  0.0927986571775195  0.9982618422764792
  0.1468177940143611  0.4022247578720972  0.5009513289001661
  0.3488247729140953  0.5929881787046882  0.9989413863588129
  0.6517289794236925  0.1023454612507482  0.5000943651890954
  0.8368659387864434  0.5838207605816751  0.4966025200486649
  0.8485898905218714  0.9077480393118004  0.0019942531029209
  0.2948218802205509  0.5487385736596484  0.3677196190927651
  0.7129264683055464  0.0526216136496719  0.1396386601994766
  0.2118091171190777  0.4479685497872133  0.8616996941581263
  0.2141729439205382  0.0478818675926306  0.3659614892097498
  0.2884559106561800  0.9469895705577732  0.8612171549439437
  0.7091239477113706  0.4582258810404394  0.6371929898675761
  0.7872287696879078  0.9521421170839235  0.6342279333923798
  0.7885791268603985  0.5528759485524350  0.1383324490961442
  0.4649584926407954  0.4598467168072633  0.5482509305944478
  0.4476502942727269  0.0641947935141454  0.0658142285139456
  0.9464975848255522  0.4370573506512936  0.9345739740280921
  0.9467559434505300  0.0541736223973462  0.4346088812828236
  0.5539662544086164  0.9369498951121368  0.9348492313614604
  0.0521239566185573  0.9378424361695658  0.5649454821947942
  0.0532394771217603  0.5629279211517387  0.0653251717770684
  0.5843784023010609  0.3798438467467735  0.2554022519434225
  0.4174924887799477  0.8862636528982856  0.2486310070531041
  0.9151902762633195  0.6168509532251831  0.7525144504023359
  0.9148768380788972  0.8860229923847917  0.2542590021906411
  0.5842186671773441  0.1241414923338205  0.7510813314619212
  0.4184354484149410  0.6129291420502587  0.7446924871223269
  0.0811522925195208  0.1148276369593418  0.7464843793389765
  0.0873983799178175  0.3824069943109286  0.2479211757350964
  0.8341660738325875  0.1050516135756414  0.8298986852226605
  0.1654803139985309  0.6089204000314450  0.6676262231776712
  0.6563476464660725  0.8571264440710942  0.3418704887741164
  0.6643103992524348  0.6073449128223609  0.8296249907925659
  0.8340626777140102  0.3848811189571839  0.3318795065161103
  0.1652027250415686  0.8940650713530368  0.1705157939059687
  0.3364223055559689  0.3962797693420578  0.1705911156732034
  0.3360298867238580  0.1173898732825070  0.6648804519136924
  0.0403672106238041  0.8325625962124261  0.8739556827322017
  0.9556932989922997  0.3348495098269191  0.6256405926635084
  0.4575208815111376  0.1688842043769911  0.3761702604690871
  0.4587024320103972  0.3325392769174742  0.8736042149515015
  0.0437901257275611  0.6593137143229340  0.3747186077606613
  0.9605321748822570  0.1681556533662692  0.1259883625040126
  0.5419315948288727  0.6683246077431515  0.1276227588786525
  0.5420793780436929  0.8449168430717053  0.6245011589339172
  0.3694736457280881  0.2080679239984917  0.9572443815467410
  0.6352294494203152  0.7274846934189355  0.5419688099323655
  0.1310878176464452  0.7830163262434182  0.4585975960033219
  0.1310837112205704  0.7081827556120199  0.9570578644128818
  0.3564633565210508  0.2727448376877199  0.4581051195092005
  0.6314390079308346  0.7929492332093923  0.0438998512090639
  0.8697125440666325  0.2922694944797183  0.0428669660599872
  0.8703110363323207  0.2103991556335761  0.5410556723516092
  0.4404673515458969  0.8516377159832280  0.3786517901908467
  0.5535961763212945  0.3502058572760240  0.1245205475563107
  0.0516908323755068  0.1505616802831150  0.8762361173510349
  0.0530302843167969  0.3418836498738392  0.3769045758277508
  0.4476396753699479  0.6507943261911160  0.8761064619954013
  0.5498970078864548  0.1642769292535652  0.6212833368799945
  0.9446088437934766  0.6522249659972319  0.6225426480695947
  0.9485670726127012  0.8499994215359297  0.1240882030527600
  0.1352794541632370  0.2439194923300526  0.6254463620919379
  0.8595924230392370  0.7440763503566019  0.8765358211983448
  0.3613743431383633  0.7572900029947289  0.1248300421791209
  0.3636086495155178  0.7443822301082581  0.6219658580488175
  0.1413431816514530  0.2558497903161797  0.1233290082019174
  0.8640423260006573  0.7482625882540641  0.3750403596103671
  0.6386912288913219  0.2415628821760455  0.3772426370334296
  0.6395030672544800  0.2448771831732186  0.8758802720101239
  0.6315680931207379  0.7578272069368727  0.2158742548052500
  0.3684148277771593  0.2596462909587857  0.2873293977731266
  0.8636417081310138  0.2457777194740908  0.7129963556174569
  0.8720912871679151  0.2604059869069551  0.2138923069163366
  0.6312440649359735  0.7541526322314527  0.7131247197975665
  0.3688668719277809  0.2427100252507570  0.7856267186214648
  0.1292317657861738  0.7414031227821759  0.7857341842627876
  0.1348929126973145  0.7537031186888663  0.2877027179091590

  0.00000000E+00  0.00000000E+00  0.00000000E+00
  0.00000000E+00  0.00000000E+00  0.00000000E+00
  0.00000000E+00  0.00000000E+00  0.00000000E+00
  0.00000000E+00  0.00000000E+00  0.00000000E+00
  0.00000000E+00  0.00000000E+00  0.00000000E+00
  0.00000000E+00  0.00000000E+00  0.00000000E+00
  0.00000000E+00  0.00000000E+00  0.00000000E+00
  0.00000000E+00  0.00000000E+00  0.00000000E+00
  0.00000000E+00  0.00000000E+00  0.00000000E+00
  0.00000000E+00  0.00000000E+00  0.00000000E+00
  0.00000000E+00  0.00000000E+00  0.00000000E+00
  0.00000000E+00  0.00000000E+00  0.00000000E+00
  0.00000000E+00  0.00000000E+00  0.00000000E+00
  0.00000000E+00  0.00000000E+00  0.00000000E+00
  0.00000000E+00  0.00000000E+00  0.00000000E+00
  0.00000000E+00  0.00000000E+00  0.00000000E+00
  0.00000000E+00  0.00000000E+00  0.00000000E+00
  0.00000000E+00  0.00000000E+00  0.00000000E+00
  0.00000000E+00  0.00000000E+00  0.00000000E+00
  0.00000000E+00  0.00000000E+00  0.00000000E+00
  0.00000000E+00  0.00000000E+00  0.00000000E+00
  0.00000000E+00  0.00000000E+00  0.00000000E+00
  0.00000000E+00  0.00000000E+00  0.00000000E+00
  0.00000000E+00  0.00000000E+00  0.00000000E+00
  0.00000000E+00  0.00000000E+00  0.00000000E+00
  0.00000000E+00  0.00000000E+00  0.00000000E+00
  0.00000000E+00  0.00000000E+00  0.00000000E+00
  0.00000000E+00  0.00000000E+00  0.00000000E+00
  0.00000000E+00  0.00000000E+00  0.00000000E+00
  0.00000000E+00  0.00000000E+00  0.00000000E+00
  0.00000000E+00  0.00000000E+00  0.00000000E+00
  0.00000000E+00  0.00000000E+00  0.00000000E+00
  0.00000000E+00  0.00000000E+00  0.00000000E+00
  0.00000000E+00  0.00000000E+00  0.00000000E+00
  0.00000000E+00  0.00000000E+00  0.00000000E+00
  0.00000000E+00  0.00000000E+00  0.00000000E+00
  0.00000000E+00  0.00000000E+00  0.00000000E+00
  0.00000000E+00  0.00000000E+00  0.00000000E+00
  0.00000000E+00  0.00000000E+00  0.00000000E+00
  0.00000000E+00  0.00000000E+00  0.00000000E+00
  0.00000000E+00  0.00000000E+00  0.00000000E+00
  0.00000000E+00  0.00000000E+00  0.00000000E+00
  0.00000000E+00  0.00000000E+00  0.00000000E+00
  0.00000000E+00  0.00000000E+00  0.00000000E+00
  0.00000000E+00  0.00000000E+00  0.00000000E+00
  0.00000000E+00  0.00000000E+00  0.00000000E+00
  0.00000000E+00  0.00000000E+00  0.00000000E+00
  0.00000000E+00  0.00000000E+00  0.00000000E+00
  0.00000000E+00  0.00000000E+00  0.00000000E+00
  0.00000000E+00  0.00000000E+00  0.00000000E+00
  0.00000000E+00  0.00000000E+00  0.00000000E+00
  0.00000000E+00  0.00000000E+00  0.00000000E+00
  0.00000000E+00  0.00000000E+00  0.00000000E+00
  0.00000000E+00  0.00000000E+00  0.00000000E+00
  0.00000000E+00  0.00000000E+00  0.00000000E+00
  0.00000000E+00  0.00000000E+00  0.00000000E+00
  0.00000000E+00  0.00000000E+00  0.00000000E+00
  0.00000000E+00  0.00000000E+00  0.00000000E+00
  0.00000000E+00  0.00000000E+00  0.00000000E+00
  0.00000000E+00  0.00000000E+00  0.00000000E+00
  0.00000000E+00  0.00000000E+00  0.00000000E+00
  0.00000000E+00  0.00000000E+00  0.00000000E+00
  0.00000000E+00  0.00000000E+00  0.00000000E+00
  0.00000000E+00  0.00000000E+00  0.00000000E+00
  0.00000000E+00  0.00000000E+00  0.00000000E+00
  0.00000000E+00  0.00000000E+00  0.00000000E+00
  0.00000000E+00  0.00000000E+00  0.00000000E+00
  0.00000000E+00  0.00000000E+00  0.00000000E+00
  0.00000000E+00  0.00000000E+00  0.00000000E+00
  0.00000000E+00  0.00000000E+00  0.00000000E+00
  0.00000000E+00  0.00000000E+00  0.00000000E+00
  0.00000000E+00  0.00000000E+00  0.00000000E+00
  0.00000000E+00  0.00000000E+00  0.00000000E+00
  0.00000000E+00  0.00000000E+00  0.00000000E+00
  0.00000000E+00  0.00000000E+00  0.00000000E+00
  0.00000000E+00  0.00000000E+00  0.00000000E+00
  0.00000000E+00  0.00000000E+00  0.00000000E+00
  0.00000000E+00  0.00000000E+00  0.00000000E+00
  0.00000000E+00  0.00000000E+00  0.00000000E+00
