Na4 P2 S6                               
   1.0000000000000000     
     6.5173205583946450    0.0016885374152354    0.9878931566317932
    -3.2686745528582670    5.6383718199076673    0.9878931566317933
    -0.0071795064853188   -0.0124645313290464    7.6325604511022895
   Na   P    S 
     4     2     6
Direct
  0.3376487811552522  0.6623512188447478  0.0000000000000000
  0.6623512188447478  0.3376487811552522  0.0000000000000000
  0.1838323499843071  0.8161676500156929  0.5000000000000000
  0.8161676500156929  0.1838323499843071  0.5000000000000000
  0.0539362975507984  0.0539362975507984  0.8423056704340794
  0.9460637024492016  0.9460637024492016  0.1576943295659206
  0.7956404328711884  0.7956404328711884  0.7569316357826921
  0.2043595671288116  0.2043595671288116  0.2430683642173079
  0.3729759091907967  0.0713076802733683  0.7651367432095098
  0.0713163617743930  0.3729845906918214  0.7690650248656041
  0.6270154093081786  0.9286836382256070  0.2309349751343959
  0.9286836382256070  0.6270154093081786  0.2309349751343959

  0.00000000E+00  0.00000000E+00  0.00000000E+00
  0.00000000E+00  0.00000000E+00  0.00000000E+00
  0.00000000E+00  0.00000000E+00  0.00000000E+00
  0.00000000E+00  0.00000000E+00  0.00000000E+00
  0.00000000E+00  0.00000000E+00  0.00000000E+00
  0.00000000E+00  0.00000000E+00  0.00000000E+00
  0.00000000E+00  0.00000000E+00  0.00000000E+00
  0.00000000E+00  0.00000000E+00  0.00000000E+00
  0.00000000E+00  0.00000000E+00  0.00000000E+00
  0.00000000E+00  0.00000000E+00  0.00000000E+00
  0.00000000E+00  0.00000000E+00  0.00000000E+00
  0.00000000E+00  0.00000000E+00  0.00000000E+00
