Na4 P2 S6                               
   1.0000000000000000     
     6.5173205583946450    0.0016885374152354    0.9878931566317932
    -3.2686745528582670    5.6383718199076673    0.9878931566317933
    -0.0071795064853188   -0.0124645313290464    7.6325604511022895
   Na   P    S 
     4     2     6
Direct
  0.3376487811552546  0.6623512188447455 -0.0000000000000000
  0.6623512188447455  0.3376487811552546 -0.0000000000000000
  0.1838323499843086  0.8161676500156914  0.5000000000000000
  0.8161676500156914  0.1838323499843086  0.5000000000000000
  0.0539362975507975  0.0539362975507975  0.8423056704340804
  0.9460637024492025  0.9460637024492025  0.1576943295659195
  0.7956404328711909  0.7956404328711909  0.7569316357826913
  0.2043595671288091  0.2043595671288091  0.2430683642173089
  0.3729845906918191  0.0713163617743955  0.7690650248656047
  0.0713163617743955  0.3729845906918191  0.7690650248656047
  0.6270154093081808  0.9286836382256044  0.2309349751343953
  0.9286836382256044  0.6270154093081808  0.2309349751343953

  0.00000000E+00  0.00000000E+00  0.00000000E+00
  0.00000000E+00  0.00000000E+00  0.00000000E+00
  0.00000000E+00  0.00000000E+00  0.00000000E+00
  0.00000000E+00  0.00000000E+00  0.00000000E+00
  0.00000000E+00  0.00000000E+00  0.00000000E+00
  0.00000000E+00  0.00000000E+00  0.00000000E+00
  0.00000000E+00  0.00000000E+00  0.00000000E+00
  0.00000000E+00  0.00000000E+00  0.00000000E+00
  0.00000000E+00  0.00000000E+00  0.00000000E+00
  0.00000000E+00  0.00000000E+00  0.00000000E+00
  0.00000000E+00  0.00000000E+00  0.00000000E+00
  0.00000000E+00  0.00000000E+00  0.00000000E+00
