Na4 P2 S6
1.0
   6.4479574275173253    0.0000000000000000    0.9789727762070408
  -3.2353314574592100    5.5775250198856758    0.9789727762070408
   0.0000000000000000    0.0000000000000000    7.5168074999999996
Na P S
4 2 6
direct
   0.3377524700000000    0.6622475300000000    0.0000000000000000 Na
   0.6622475300000000    0.3377524700000000    0.0000000000000000 Na
   0.1841213000000000    0.8158787000000000    0.5000000000000000 Na
   0.8158787000000000    0.1841213000000000    0.5000000000000000 Na
   0.0541139200000000    0.0541139200000000    0.8422030900000000 P
   0.9458860800000000    0.9458860800000000    0.1577969100000000 P
   0.7945071200000000    0.7945071200000000    0.7572203199999999 S
   0.2054928800000000    0.2054928800000000    0.2427796800000000 S
   0.3742676100000000    0.0716434000000000    0.7692647900000000 S
   0.0716434000000000    0.3742676100000000    0.7692647900000000 S
   0.6257323900000000    0.9283566000000000    0.2307352100000000 S
   0.9283566000000000    0.6257323900000000    0.2307352100000000 S
