user_Na5AlS4_Na5AlS4 NEB_v2 image 00
  1.0
     12.1026382039385112      0.0000000000000000      0.0000000000000007
     -0.0000000000000004      7.0938170788834114      0.0000000000000004
      0.0000000000000000      0.0000000000000000     21.6510149562332330
  Na  Al  S
  39  8  32
Direct
  0.3484256250018933  0.8968041500629740  0.4998502999323873
  0.6512724882464590  0.4067910778600299  0.0012248322289896
  0.1515125718392192  0.0923810720819182  0.9978904275006759
  0.1619637459637435  0.4139888596467234  0.5026147183626759
  0.3482973332939820  0.5917021824959230  0.9981614378802190
  0.6502350255617863  0.1018966924281220  0.5004768908369062
  0.8531028080987265  0.5983921299405973  0.4991920673929842
  0.8475491786105296  0.9070150489482146  0.0020298496324519
  0.2907145290902642  0.5409661476718409  0.3630140810696400
  0.7112571429950737  0.0521388187594967  0.1386113406284251
  0.2107840123868167  0.4478810072231712  0.8615376225503416
  0.2128049814163167  0.0470766703725492  0.3659361983926148
  0.2872463374754769  0.9475849719781172  0.8610667700503528
  0.7050638442649030  0.4523059082869254  0.6322106198791105
  0.7863591899143098  0.9541635074422052  0.6339656202454365
  0.7887229614953304  0.5519875580912983  0.1382970817177816
  0.5349127670170485  0.5392326692436051  0.4521298165082276
  0.4461812522642031  0.0625258881675639  0.0651941934308968
  0.9462283220884695  0.4369117409037351  0.9346977753380318
  0.9481313830523292  0.0617018816028101  0.4349361177355280
  0.5525139903680683  0.9360696493131984  0.9341917804820380
  0.0534237911224525  0.9460925067158850  0.5653759909909781
  0.0535850458527625  0.5631583485665580  0.0653664090284976
  0.5823303946522778  0.3849437336579279  0.2551361800024221
  0.4152603583105167  0.8734791188008323  0.2491049310499562
  0.9122387271861411  0.6196367177417589  0.7520416292825727
  0.9182652961840780  0.8852459579192322  0.2535807348489173
  0.5826995206416110  0.1146529138419375  0.7512253213278690
  0.4156704162208967  0.6205701189175870  0.7448025477972563
  0.0861960748207315  0.1154762561003068  0.7459914044056739
  0.0850861670807850  0.3830686148379042  0.2474147463381685
  0.8343945255255512  0.1060617510229369  0.8293407892062432
  0.1666169848012696  0.6164770217044647  0.6679683785858853
  0.6630242201407465  0.8810033408050769  0.3347925054641867
  0.6636230359436768  0.6044033351833616  0.8296839670756277
  0.8346062915868230  0.3902258179362441  0.3324445978539667
  0.1658384482142225  0.8952081287608452  0.1701209090663503
  0.3360139381784073  0.3917728042182534  0.1702881928887933
  0.3440682479622582  0.1452117349540535  0.6580283683729630
  0.0392810883398010  0.8323703263241090  0.8739770670907959
  0.9565380067470459  0.3416034722751018  0.6254292277208622
  0.4579062765135467  0.1537212327433689  0.3754721825878906
  0.4577129708892390  0.3321836691781608  0.8723962464843402
  0.0436817190186365  0.6644331348152612  0.3742646886770369
  0.9596711651345586  0.1672460050141518  0.1260837762740859
  0.5411692876802150  0.6666927219201185  0.1262851437037826
  0.5429213215111287  0.8318474109106356  0.6238958688678433
  0.3684453062603497  0.2075738779083009  0.9561810675639693
  0.6438846514104183  0.7278112123447510  0.5419692273231919
  0.1289646431336525  0.7883809425836987  0.4589660424194185
  0.1302782993690722  0.7080484351534335  0.9570515397080054
  0.3646597872491597  0.2717490429389270  0.4579205705459676
  0.6304960191727793  0.7916211611334051  0.0427005074937068
  0.8687286309667287  0.2918360093672602  0.0430610360253317
  0.8698304904378115  0.2179102521307454  0.5412727858284594
  0.4498264706863879  0.8343967868457794  0.3789324959257301
  0.5521702324922132  0.3484326179818540  0.1237579660583772
  0.0510401036535997  0.1506542779467973  0.8759180541464614
  0.0551878207625816  0.3468803857253203  0.3771995164188828
  0.4463112680943475  0.6504498133897829  0.8754959840482234
  0.5597366040930767  0.1489653602748353  0.6211652306183223
  0.9472415008365090  0.6591087659134069  0.6231308278441889
  0.9485951035817454  0.8490605880971047  0.1238460502209799
  0.1361947987048040  0.2524537108738893  0.6253061969739783
  0.8585284982210893  0.7447576801107110  0.8766302467633904
  0.3603167169881791  0.7539571582796984  0.1240615430429524
  0.3618330475098551  0.7586800830803551  0.6228161329595978
  0.1404217500921274  0.2554641085649587  0.1234244890991081
  0.8641216024796505  0.7551700861230808  0.3745521674170329
  0.6363615802527147  0.2544736784438368  0.3780106903301145
  0.6382668538618546  0.2434718376017815  0.8751158856703989
  0.6309134877713254  0.7567712460020587  0.2142254395779815
  0.3691974743080490  0.2454751758049593  0.2868617440225484
  0.8648818413224127  0.2473867856867877  0.7122918711850692
  0.8708092133608195  0.2583795870181331  0.2142756085904804
  0.6321011060283169  0.7421863553659360  0.7128000941569772
  0.3682511462504834  0.2423097738906715  0.7842059032305361
  0.1276874568862017  0.7404724149245810  0.7860616554213022
  0.1360066806106016  0.7545730442422283  0.2871627103811146
