ALGO = All
EDIFF = 1e-06
ENCUT = 520
HFSCREEN = 0.2
EMAX = 14
ICHARG = 1
EMIN = -1
ISMEAR = 0
ISPIN = 2
ISYM = 0
LCHARG = False
LHFCALC = True
AEXX = 0.3
LORBIT = 11
LREAL = Auto
LWAVE = False
MAGMOM = 96*0.6
NELM = 400
NEDOS = 1500
PREC = Accurate
SIGMA = 0.05
AMIX=0.1
BMIX=0.01
