JVASP-12818_Na5InS4 NEB_v2 image 01     
   1.0000000000000000     
     6.8330688911791304    0.0000000000000000   -0.1272470229470229
    -0.0000000000000010   17.6718505513838551    0.0000000000000010
    -0.0048172062806638    0.0000000000000000    7.8804846921668430
   Na   In   S 
    19     4    16
Direct
  0.6039161357493086  0.2773385701900466  0.7039664781566159
  0.3424273093066859  0.0127649851127032  0.3305400868433352
  0.3478055496479158  0.2378234753340251  0.3392112395431894
  0.6326655619636625  0.4827837492169991  0.6876265624398172
  0.9544682736014352  0.1294752609109651  0.5282963898094124
  0.0375787370568901  0.3741715320535874  0.4991341269073430
  0.6809587197099987  0.1316670302143805  0.1503288621067327
  0.9928572891066025  0.0000650491928269  0.9978333046598422
  0.0607801370293615  0.2661096689275766  0.9857837910274228
  0.6509112133785706  0.7623543933577466  0.6599640487442713
  0.3452138588409852  0.5123806861075124  0.3386537278346466
  0.3437016207191519  0.7373032686806482  0.3308635577092005
  0.6514189319565133  0.9877340091672835  0.6600651252596279
  0.9577066065850985  0.6224228888554393  0.5277848352083367
  0.0298067762938246  0.8750066587613645  0.4691813647612264
  0.6820041880839440  0.6179872036330281  0.1504515322981206
  0.3305948422853575  0.8751299084016182  0.8429632742144548
  0.0656934777981633  0.4827364150603088  0.9878336175416109
  0.9936014778685802  0.7502652469287412  0.9982797125594729
  0.6540521154303178  0.3753514325712288  0.1807307687364030
  0.3438393748110400  0.1215513857679369  0.8138397089760332
  0.6431749502836510  0.8749804950129700  0.1786358836158257
  0.3443562906314312  0.6285492433836950  0.8147165450286096
  0.7883140076776840  0.3751026383287979  0.8923033125752582
  0.2346847742098532  0.1257455617389596  0.1145155597662892
  0.2238893471373586  0.0037965686971404  0.6650032686541110
  0.7622904894255385  0.2589121585961038  0.3457588955325690
  0.7614152999548764  0.4912785895672656  0.3486607355344518
  0.2239913648602254  0.2381913010147585  0.6636557569034380
  0.7124497127726315  0.1234214810832341  0.8125372286865087
  0.2848187238985034  0.3750789276953199  0.1917410250472003
  0.7568983368797291  0.8750118386814734  0.8792199755041494
  0.2343963586978859  0.6245755865774072  0.1148575236869434
  0.2259301104306672  0.5116985321330674  0.6644333527928410
  0.7639544889939884  0.7560908687860675  0.3254069819858998
  0.7635325731249978  0.9938589275039575  0.3255137277058608
  0.2243054521571892  0.7463303283951461  0.6651156281683157
  0.7129816591694791  0.6265933465160813  0.8119176246015414
  0.2732002875743760  0.8748526258850831  0.1808968064461283

             NaN             NaN             NaN
             NaN             NaN             NaN
             NaN             NaN             NaN
             NaN             NaN             NaN
             NaN             NaN             NaN
             NaN             NaN             NaN
             NaN             NaN             NaN
             NaN             NaN             NaN
             NaN             NaN             NaN
             NaN             NaN             NaN
             NaN             NaN             NaN
             NaN             NaN             NaN
             NaN             NaN             NaN
             NaN             NaN             NaN
             NaN             NaN             NaN
             NaN             NaN             NaN
             NaN             NaN             NaN
             NaN             NaN             NaN
             NaN             NaN             NaN
             NaN             NaN             NaN
             NaN             NaN             NaN
             NaN             NaN             NaN
             NaN             NaN             NaN
             NaN             NaN             NaN
             NaN             NaN             NaN
             NaN             NaN             NaN
             NaN             NaN             NaN
             NaN             NaN             NaN
             NaN             NaN             NaN
             NaN             NaN             NaN
             NaN             NaN             NaN
             NaN             NaN             NaN
             NaN             NaN             NaN
             NaN             NaN             NaN
             NaN             NaN             NaN
             NaN             NaN             NaN
             NaN             NaN             NaN
             NaN             NaN             NaN
             NaN             NaN             NaN
