JVASP-12818_Na5InS4 NEB_v2 image 01
  1.0
      6.8330688911791304      0.0000000000000000     -0.1272470229470229
     -0.0000000000000010     17.6718505513838551      0.0000000000000010
     -0.0048172062806638      0.0000000000000000      7.8804846921668430
  Na  In  S
  19  4  16
Direct
  0.6039161357493106  0.2773385701900445  0.7039664781566149
  0.3424273093066829  0.0127649851127043  0.3305400868433374
  0.3478055496479140  0.2378234753340225  0.3392112395431909
  0.6326655619636635  0.4827837492170010  0.6876265624398143
  0.9544682736014334  0.1294752609109626  0.5282963898094091
  0.0375787370568932  0.3741715320535891  0.4991341269073409
  0.6809587197099984  0.1316670302143839  0.1503288621067331
  0.9928572891066026  0.0000650491928275  0.9978333046598415
  0.0607801370293601  0.2661096689275749  0.9857837910274206
  0.6509112133785735  0.7623543933577470  0.6599640487442686
  0.3452138588409870  0.5123806861075096  0.3386537278346443
  0.3437016207191503  0.7373032686806508  0.3308635577092039
  0.6514189319565098  0.9877340091672824  0.6600651252596266
  0.9577066065850961  0.6224228888554424  0.5277848352083376
  0.0298067762938219  0.8750066587613636  0.4691813647612240
  0.6820041880839426  0.6179872036330291  0.1504515322981229
  0.3305948422853557  0.8751299084016166  0.8429632742144516
  0.0656934777981637  0.4827364150603095  0.9878336175416101
  0.9936014778685838  0.7502652469287407  0.9982797125594699
  0.6540521154303147  0.3753514325712275  0.1807307687364008
  0.3438393748110433  0.1215513857679363  0.8138397089760336
  0.6431749502836480  0.8749804950129721  0.1786358836158242
  0.3443562906314315  0.6285492433836919  0.8147165450286101
  0.7883140076776840  0.3751026383287997  0.8923033125752580
  0.2346847742098531  0.1257455617389628  0.1145155597662875
  0.2238893471373598  0.0037965686971421  0.6650032686541105
  0.7622904894255417  0.2589121585961008  0.3457588955325682
  0.7614152999548732  0.4912785895672623  0.3486607355344526
  0.2239913648602249  0.2381913010147556  0.6636557569034356
  0.7124497127726307  0.1234214810832367  0.8125372286865066
  0.2848187238985006  0.3750789276953167  0.1917410250472013
  0.7568983368797291  0.8750118386814711  0.8792199755041468
  0.2343963586978836  0.6245755865774049  0.1148575236869413
  0.2259301104306655  0.5116985321330685  0.6644333527928392
  0.7639544889939895  0.7560908687860664  0.3254069819858997
  0.7635325731250006  0.9938589275039587  0.3255137277058580
  0.2243054521571879  0.7463303283951470  0.6651156281683189
  0.7129816591694764  0.6265933465160833  0.8119176246015424
  0.2732002875743731  0.8748526258850808  0.1808968064461248
