Na Al S                                 
   1.0000000000000000     
    12.1026382039385112    0.0000000000000000    0.0000000000000007
    -0.0000000000000004    7.0938170788834114    0.0000000000000004
     0.0000000000000000    0.0000000000000000   21.6510149562332330
   Na   Al   S 
    39     8    32
Direct
  0.3475448435513258  0.9086340453139314  0.4987250887670243
  0.6421749327416535  0.4043242539356342  0.9995448762795007
  0.1650032048270234  0.0870568234334712  0.9924751893108805
  0.1519391624906135  0.4070627697699010  0.4983954534196400
  0.3434700151759102  0.6024108208461385  0.9978127779629276
  0.6521451144572197  0.0909668686914813  0.5012826121109697
  0.8480102728622683  0.5905841911651564  0.5012413992246039
  0.8509483550453538  0.9074778151987388  0.9979653387709106
  0.2878360197840877  0.5509669411052087  0.3627180162504970
  0.7136805544139051  0.0495954904065030  0.1351254907896760
  0.2210818853051464  0.4982238086883726  0.8653499867854535
  0.2122271739489463  0.0503885453524404  0.3624972848963708
  0.7125919436156423  0.4492143988065180  0.6384377187357870
  0.7875786883950369  0.9478009370257325  0.6378706267034673
  0.7855267357735727  0.5480627898040922  0.1364008745042682
  0.5528041779280812  0.5614118557386334  0.4351529085051098
  0.4477323433693670  0.0607253006615522  0.0677609901018883
  0.9463991167227448  0.4375697927780280  0.9350424801183266
  0.9475214037988025  0.0606408581197968  0.4345896518096950
  0.5421066546052273  0.9423755030045911  0.9337657015242442
  0.4462035845325616  0.4385416089663110  0.5663074655183991
  0.0535934512391094  0.9367634061875236  0.5656949867449725
  0.0491008919906335  0.5568921685150627  0.0659017425097090
  0.5836343438477840  0.3856283980657835  0.2534003109800977
  0.4150021515477675  0.8841085946460794  0.2470890692967629
  0.9201398261130080  0.6130437740133488  0.7530751971345069
  0.9161427256520582  0.8835382370418614  0.2527063521512574
  0.5837962406290700  0.1207411788786672  0.7526206516121832
  0.4019452734801234  0.6474136277168938  0.7529758818458490
  0.0932205419946612  0.1215870360393794  0.7502976662703134
  0.0838749862469115  0.3828753784373617  0.2464347100987752
  0.8374534309493953  0.1022403706456956  0.8301009567286926
  0.1645178587573000  0.6055719245110254  0.6683531773545397
  0.6642119648918552  0.8936334643622459  0.3303137519037165
  0.6654419998439423  0.6064065527537394  0.8313205745229268
  0.8362657188764331  0.3920008810899844  0.3304406978019188
  0.1620975132145688  0.8901364974166981  0.1680348316539408
  0.3346927381521212  0.3919510315156671  0.1686664559102340
  0.3369750142746284  0.1110320671657519  0.6695719225125671
  0.0494685207282473  0.8345452358797019  0.8738568431128257
  0.9598298695349357  0.3310072923926768  0.6256676742192369
  0.4590972911486233  0.1667582392478408  0.3743376373795186
  0.4600266328429683  0.3304444216547964  0.8743851487720207
  0.0410173147411967  0.6662029238357263  0.3739902427289081
  0.9583021511349230  0.1643712373713626  0.1245790681812053
  0.5400505265905480  0.6667547020848588  0.1252115444041664
  0.5400902970394554  0.8328312267873628  0.6260457716180952
  0.3778841141926321  0.2224211611561557  0.9618814814574819
  0.6309032080201149  0.7069488546504843  0.5431227884716066
  0.1306199986512695  0.7911157897118528  0.4573820129887309
  0.1264104227045237  0.7041015340206584  0.9597387186548616
  0.3696370718055206  0.2919699648417620  0.4577354693883322
  0.6279237000466296  0.7905275109729786  0.0410800883016904
  0.8647601484497258  0.2889826264361588  0.0425150750662766
  0.8695975405835270  0.2065979643580889  0.5423647398488427
  0.4477712169534769  0.8488010286098842  0.3769023875257105
  0.5530047887939986  0.3491414183978634  0.1241125204168512
  0.0510896126473597  0.1515219025525241  0.8779802723122501
  0.0527413194241149  0.3482478954659527  0.3765943075112972
  0.4500218501026012  0.6451163542959080  0.8791118931188038
  0.5534931119177173  0.1507559763955229  0.6228957470828078
  0.9470616057049597  0.6491958731114735  0.6229718016210768
  0.9444998491562728  0.8467135480982790  0.1227279736080789
  0.1407577998256997  0.2445358924032490  0.6231986734377131
  0.8664016861319936  0.7422616852217914  0.8736029071763127
  0.3593932351820541  0.7540626575061253  0.1243279739852099
  0.3590384396195390  0.7484824626211761  0.6233558293178447
  0.1390215654304683  0.2511851778068745  0.1225068103550413
  0.8601283106937814  0.7542185711499343  0.3759816397241522
  0.6398941964607729  0.2552864353308948  0.3761925899667276
  0.6405320232222991  0.2382137125427093  0.8744594488658421
  0.6307696128496758  0.7593212018883762  0.2126212417552082
  0.3690722148388517  0.2577319590345795  0.2865044561123469
  0.8716989210593553  0.2405667223625727  0.7135825770016737
  0.8693797748499037  0.2564727080487756  0.2129835694802438
  0.6273066586547671  0.7438234131785393  0.7144139958609017
  0.3687788698901784  0.2546315022650987  0.7862514078597300
  0.1352843304102294  0.7412429146069996  0.7855241525250989
  0.1309773790822604  0.7569297888226103  0.2861365812121406

             NaN             NaN             NaN
             NaN             NaN             NaN
             NaN             NaN             NaN
             NaN             NaN             NaN
             NaN             NaN             NaN
             NaN             NaN             NaN
             NaN             NaN             NaN
             NaN             NaN             NaN
             NaN             NaN             NaN
             NaN             NaN             NaN
             NaN             NaN             NaN
             NaN             NaN             NaN
             NaN             NaN             NaN
             NaN             NaN             NaN
             NaN             NaN             NaN
             NaN             NaN             NaN
             NaN             NaN             NaN
             NaN             NaN             NaN
             NaN             NaN             NaN
             NaN             NaN             NaN
             NaN             NaN             NaN
             NaN             NaN             NaN
             NaN             NaN             NaN
             NaN             NaN             NaN
             NaN             NaN             NaN
             NaN             NaN             NaN
             NaN             NaN             NaN
             NaN             NaN             NaN
             NaN             NaN             NaN
             NaN             NaN             NaN
             NaN             NaN             NaN
             NaN             NaN             NaN
             NaN             NaN             NaN
             NaN             NaN             NaN
             NaN             NaN             NaN
             NaN             NaN             NaN
             NaN             NaN             NaN
             NaN             NaN             NaN
             NaN             NaN             NaN
             NaN             NaN             NaN
             NaN             NaN             NaN
             NaN             NaN             NaN
             NaN             NaN             NaN
             NaN             NaN             NaN
             NaN             NaN             NaN
             NaN             NaN             NaN
             NaN             NaN             NaN
             NaN             NaN             NaN
             NaN             NaN             NaN
             NaN             NaN             NaN
             NaN             NaN             NaN
             NaN             NaN             NaN
             NaN             NaN             NaN
             NaN             NaN             NaN
             NaN             NaN             NaN
             NaN             NaN             NaN
             NaN             NaN             NaN
             NaN             NaN             NaN
             NaN             NaN             NaN
             NaN             NaN             NaN
             NaN             NaN             NaN
             NaN             NaN             NaN
             NaN             NaN             NaN
             NaN             NaN             NaN
             NaN             NaN             NaN
             NaN             NaN             NaN
             NaN             NaN             NaN
             NaN             NaN             NaN
             NaN             NaN             NaN
             NaN             NaN             NaN
             NaN             NaN             NaN
             NaN             NaN             NaN
             NaN             NaN             NaN
             NaN             NaN             NaN
             NaN             NaN             NaN
             NaN             NaN             NaN
             NaN             NaN             NaN
             NaN             NaN             NaN
             NaN             NaN             NaN
