Na Al S 
 1.0000000000000000
    12.1026382039385112    0.0000000000000000    0.0000000000000007
    -0.0000000000000004    7.0938170788834114    0.0000000000000004
     0.0000000000000000    0.0000000000000000   21.6510149562332330
 Na  Al  S  
  39   8  32
Direct
  0.3475448435513237  0.9086340453139329  0.4987250887670265
  0.6421749327416570  0.4043242539356358 -0.0004551237204994
  0.1650032048270252  0.0870568234334692  0.9924751893108787
  0.1519391624906148  0.4070627697699034  0.4983954534196365
  0.3434700151759104  0.6024108208461353  0.9978127779629248
  0.6521451144572221  0.0909668686914792  0.5012826121109693
  0.8480102728622705  0.5905841911651536  0.5012413992246053
  0.8509483550453537  0.9074778151987398 -0.0020346612290858
  0.2878360197840890  0.5509669411052095  0.3627180162504966
  0.7136805544139025  0.0495954904064999  0.1351254907896754
  0.2210818853051497  0.4982238086883712  0.8653499867854535
  0.2122271739489496  0.0503885453524429  0.3624972848963703
  0.7125919436156428  0.4492143988065200  0.6384377187357901
  0.7875786883950393  0.9478009370257331  0.6378706267034649
  0.7855267357735747  0.5480627898040888  0.1364008745042677
  0.5528041779280806  0.5614118557386318  0.4351529085051116
  0.4477323433693703  0.0607253006615542  0.0677609901018861
  0.9463991167227426  0.4375697927780265  0.9350424801183249
  0.9475214037988035  0.0606408581197987  0.4345896518096924
  0.5421066546052306  0.9423755030045884  0.9337657015242431
  0.4462035845325630  0.4385416089663132  0.5663074655183974
  0.0535934512391070  0.9367634061875266  0.5656949867449705
  0.0491008919906364  0.5568921685150634  0.0659017425097103
  0.5836343438477873  0.3856283980657832  0.2534003109800986
  0.4150021515477646  0.8841085946460790  0.2470890692967596
  0.9201398261130052  0.6130437740133506  0.7530751971345075
  0.9161427256520550  0.8835382370418636  0.2527063521512541
  0.5837962406290664  0.1207411788786662  0.7526206516121811
  0.4019452734801215  0.6474136277168951  0.7529758818458497
  0.0932205419946604  0.1215870360393786  0.7502976662703111
  0.0838749862469094  0.3828753784373623  0.2464347100987746
  0.8374534309493978  0.1022403706456944  0.8301009567286921
  0.1645178587573009  0.6055719245110287  0.6683531773545386
  0.6642119648918569  0.8936334643622454  0.3303137519037164
  0.6654419998439455  0.6064065527537387  0.8313205745229237
  0.8362657188764364  0.3920008810899862  0.3304406978019179
  0.1620975132145690  0.8901364974167001  0.1680348316539383
  0.3346927381521206  0.3919510315156692  0.1686664559102375
  0.3369750142746258  0.1110320671657545  0.6695719225125664
  0.0494685207282499  0.8345452358797022  0.8738568431128249
  0.9598298695349330  0.3310072923926748  0.6256676742192345
  0.4590972911486199  0.1667582392478405  0.3743376373795213
  0.4600266328429681  0.3304444216547946  0.8743851487720194
  0.0410173147411980  0.6662029238357229  0.3739902427289093
  0.9583021511349248  0.1643712373713626  0.1245790681812051
  0.5400505265905451  0.6667547020848614  0.1252115444041671
  0.5400902970394520  0.8328312267873618  0.6260457716180924
  0.3778841141926353  0.2224211611561585  0.9618814814574823
  0.6309032080201155  0.7069488546504853  0.5431227884716041
  0.1306199986512660  0.7911157897118553  0.4573820129887323
  0.1264104227045267  0.7041015340206588  0.9597387186548646
  0.3696370718055202  0.2919699648417654  0.4577354693883328
  0.6279237000466318  0.7905275109729821  0.0410800883016901
  0.8647601484497232  0.2889826264361615  0.0425150750662776
  0.8695975405835278  0.2065979643580893  0.5423647398488425
  0.4477712169534752  0.8488010286098835  0.3769023875257103
  0.5530047887939973  0.3491414183978667  0.1241125204168501
  0.0510896126473600  0.1515219025525259  0.8779802723122484
  0.0527413194241149  0.3482478954659556  0.3765943075112944
  0.4500218501026000  0.6451163542959091  0.8791118931188037
  0.5534931119177171  0.1507559763955199  0.6228957470828055
  0.9470616057049593  0.6491958731114763  0.6229718016210803
  0.9444998491562735  0.8467135480982797  0.1227279736080769
  0.1407577998257008  0.2445358924032461  0.6231986734377095
  0.8664016861319951  0.7422616852217935  0.8736029071763133
  0.3593932351820521  0.7540626575061282  0.1243279739852082
  0.3590384396195355  0.7484824626211788  0.6233558293178434
  0.1390215654304661  0.2511851778068780  0.1225068103550411
  0.8601283106937830  0.7542185711499310  0.3759816397241515
  0.6398941964607713  0.2552864353308935  0.3761925899667296
  0.6405320232222985  0.2382137125427075  0.8744594488658399
  0.6307696128496783  0.7593212018883733  0.2126212417552117
  0.3690722148388506  0.2577319590345810  0.2865044561123435
  0.8716989210593531  0.2405667223625741  0.7135825770016724
  0.8693797748499064  0.2564727080487779  0.2129835694802456
  0.6273066586547651  0.7438234131785395  0.7144139958609019
  0.3687788698901751  0.2546315022651019  0.7862514078597330
  0.1352843304102282  0.7412429146069965  0.7855241525250982
  0.1309773790822613  0.7569297888226086  0.2861365812121374
Cartesian
  0.0000000000000000  0.0000000000000000  0.0000000000000000
  0.0000000000000000  0.0000000000000000  0.0000000000000000
  0.0000000000000000  0.0000000000000000  0.0000000000000000
  0.0000000000000000  0.0000000000000000  0.0000000000000000
  0.0000000000000000  0.0000000000000000  0.0000000000000000
  0.0000000000000000  0.0000000000000000  0.0000000000000000
  0.0000000000000000  0.0000000000000000  0.0000000000000000
  0.0000000000000000  0.0000000000000000  0.0000000000000000
  0.0000000000000000  0.0000000000000000  0.0000000000000000
  0.0000000000000000  0.0000000000000000  0.0000000000000000
  0.0000000000000000  0.0000000000000000  0.0000000000000000
  0.0000000000000000  0.0000000000000000  0.0000000000000000
  0.0000000000000000  0.0000000000000000  0.0000000000000000
  0.0000000000000000  0.0000000000000000  0.0000000000000000
  0.0000000000000000  0.0000000000000000  0.0000000000000000
  0.0000000000000000  0.0000000000000000  0.0000000000000000
  0.0000000000000000  0.0000000000000000  0.0000000000000000
  0.0000000000000000  0.0000000000000000  0.0000000000000000
  0.0000000000000000  0.0000000000000000  0.0000000000000000
  0.0000000000000000  0.0000000000000000  0.0000000000000000
  0.0000000000000000  0.0000000000000000  0.0000000000000000
  0.0000000000000000  0.0000000000000000  0.0000000000000000
  0.0000000000000000  0.0000000000000000  0.0000000000000000
  0.0000000000000000  0.0000000000000000  0.0000000000000000
  0.0000000000000000  0.0000000000000000  0.0000000000000000
  0.0000000000000000  0.0000000000000000  0.0000000000000000
  0.0000000000000000  0.0000000000000000  0.0000000000000000
  0.0000000000000000  0.0000000000000000  0.0000000000000000
  0.0000000000000000  0.0000000000000000  0.0000000000000000
  0.0000000000000000  0.0000000000000000  0.0000000000000000
  0.0000000000000000  0.0000000000000000  0.0000000000000000
  0.0000000000000000  0.0000000000000000  0.0000000000000000
  0.0000000000000000  0.0000000000000000  0.0000000000000000
  0.0000000000000000  0.0000000000000000  0.0000000000000000
  0.0000000000000000  0.0000000000000000  0.0000000000000000
  0.0000000000000000  0.0000000000000000  0.0000000000000000
  0.0000000000000000  0.0000000000000000  0.0000000000000000
  0.0000000000000000  0.0000000000000000  0.0000000000000000
  0.0000000000000000  0.0000000000000000  0.0000000000000000
  0.0000000000000000  0.0000000000000000  0.0000000000000000
  0.0000000000000000  0.0000000000000000  0.0000000000000000
  0.0000000000000000  0.0000000000000000  0.0000000000000000
  0.0000000000000000  0.0000000000000000  0.0000000000000000
  0.0000000000000000  0.0000000000000000  0.0000000000000000
  0.0000000000000000  0.0000000000000000  0.0000000000000000
  0.0000000000000000  0.0000000000000000  0.0000000000000000
  0.0000000000000000  0.0000000000000000  0.0000000000000000
  0.0000000000000000  0.0000000000000000  0.0000000000000000
  0.0000000000000000  0.0000000000000000  0.0000000000000000
  0.0000000000000000  0.0000000000000000  0.0000000000000000
  0.0000000000000000  0.0000000000000000  0.0000000000000000
  0.0000000000000000  0.0000000000000000  0.0000000000000000
  0.0000000000000000  0.0000000000000000  0.0000000000000000
  0.0000000000000000  0.0000000000000000  0.0000000000000000
  0.0000000000000000  0.0000000000000000  0.0000000000000000
  0.0000000000000000  0.0000000000000000  0.0000000000000000
  0.0000000000000000  0.0000000000000000  0.0000000000000000
  0.0000000000000000  0.0000000000000000  0.0000000000000000
  0.0000000000000000  0.0000000000000000  0.0000000000000000
  0.0000000000000000  0.0000000000000000  0.0000000000000000
  0.0000000000000000  0.0000000000000000  0.0000000000000000
  0.0000000000000000  0.0000000000000000  0.0000000000000000
  0.0000000000000000  0.0000000000000000  0.0000000000000000
  0.0000000000000000  0.0000000000000000  0.0000000000000000
  0.0000000000000000  0.0000000000000000  0.0000000000000000
  0.0000000000000000  0.0000000000000000  0.0000000000000000
  0.0000000000000000  0.0000000000000000  0.0000000000000000
  0.0000000000000000  0.0000000000000000  0.0000000000000000
  0.0000000000000000  0.0000000000000000  0.0000000000000000
  0.0000000000000000  0.0000000000000000  0.0000000000000000
  0.0000000000000000  0.0000000000000000  0.0000000000000000
  0.0000000000000000  0.0000000000000000  0.0000000000000000
  0.0000000000000000  0.0000000000000000  0.0000000000000000
  0.0000000000000000  0.0000000000000000  0.0000000000000000
  0.0000000000000000  0.0000000000000000  0.0000000000000000
  0.0000000000000000  0.0000000000000000  0.0000000000000000
  0.0000000000000000  0.0000000000000000  0.0000000000000000
  0.0000000000000000  0.0000000000000000  0.0000000000000000
  0.0000000000000000  0.0000000000000000  0.0000000000000000
