Na24 Al8 S24
1.0
  12.0198561799999997    0.0000000000000000    0.0000000000000007
  -0.0000000000000005    7.5072905614601959    1.1794498240117757
   0.0000000000000000    0.0000000000000000   13.5993655199999992
Na Al S
24 8 24
direct
   0.9829416399999999    0.0819113700000000    0.8059333000000000 Na
   0.7522310900000000    0.9948307199999999    0.0137427600000000 Na
   0.8071254400000000    0.5340649000000000    0.7597928800000000 Na
   0.7373175300000000    0.9191497000000000    0.5258436500000000 Na
   0.9131764400000000    0.1111180100000000    0.3647422100000000 Na
   0.2373175300000000    0.5808503000000000    0.4741563500000000 Na
   0.8266084900000000    0.5034735800000000    0.2435888900000000 Na
   0.2626824700000000    0.0808503000000000    0.4741563500000000 Na
   0.7477689100000000    0.4948307200000000    0.0137427600000000 Na
   0.4131764400000000    0.3888819900000000    0.6352577900000000 Na
   0.2522310900000000    0.5051692800000001    0.9862572400000000 Na
   0.2477689100000000    0.0051692800000000    0.9862572400000000 Na
   0.7626824700000000    0.4191497000000000    0.5258436500000000 Na
   0.1928745600000000    0.4659351000000000    0.2402071200000000 Na
   0.0170583600000000    0.9180886300000000    0.1940667000000000 Na
   0.5868235600000000    0.6111180100000000    0.3647422100000000 Na
   0.3266084900000000    0.9965264200000000    0.7564111100000001 Na
   0.0868235600000000    0.8888819900000000    0.6352577900000000 Na
   0.3071254400000000    0.9659351000000000    0.2402071200000000 Na
   0.1733915100000000    0.4965264200000000    0.7564111100000001 Na
   0.4829416400000000    0.4180886300000000    0.1940667000000000 Na
   0.6928745600000000    0.0340649000000000    0.7597928800000000 Na
   0.5170583600000001    0.5819113700000000    0.8059333000000000 Na
   0.6733915100000000    0.0034735800000000    0.2435888900000000 Na
   0.0067048600000000    0.3258801300000000    0.0733728700000000 Al
   0.0214610100000000    0.3199412600000000    0.5657101900000000 Al
   0.5214610100000000    0.1800587400000000    0.4342898100000000 Al
   0.4785389900000000    0.8199412600000000    0.5657101900000000 Al
   0.5067048600000000    0.1741198700000000    0.9266271300000000 Al
   0.4932951400000000    0.8258801300000000    0.0733728700000000 Al
   0.9785389900000000    0.6800587400000000    0.4342898100000000 Al
   0.9932951400000000    0.6741198700000000    0.9266271300000000 Al
   0.3587811900000000    0.3100640100000000    0.8536281600000000 S
   0.1673189400000000    0.2023197400000000    0.1233618800000000 S
   0.3899104900000000    0.3795859500000000    0.3873055600000000 S
   0.1412188100000000    0.8100640099999999    0.8536281600000000 S
   0.0028870800000000    0.6190172700000000    0.0973744700000000 S
   0.6412188100000000    0.6899359900000001    0.1463718400000000 S
   0.8151326500000000    0.7621375300000000    0.3702297200000000 S
   0.1100895100000000    0.8795859499999999    0.3873055600000000 S
   0.3151326500000000    0.7378624700000000    0.6297702800000000 S
   0.5028870800000000    0.8809827300000000    0.9026255300000000 S
   0.6673189400000000    0.2976802600000000    0.8766381200000000 S
   0.8587811900000000    0.1899359900000000    0.1463718400000000 S
   0.1848673500000000    0.2378624700000000    0.6297702800000000 S
   0.0326543700000000    0.4095152800000000    0.3959679300000000 S
   0.6100895100000000    0.6204140500000001    0.6126944400000000 S
   0.4971129200000000    0.1190172700000000    0.0973744700000000 S
   0.6848673500000000    0.2621375300000000    0.3702297200000000 S
   0.8899104900000000    0.1204140500000000    0.6126944400000000 S
   0.9673456300000000    0.5904847200000000    0.6040320700000000 S
   0.9971129200000000    0.3809827300000000    0.9026255300000000 S
   0.8326810600000000    0.7976802600000000    0.8766381200000000 S
   0.5326543700000000    0.0904847200000000    0.6040320700000000 S
   0.3326810600000000    0.7023197400000000    0.1233618800000000 S
   0.4673456300000000    0.9095152800000000    0.3959679300000000 S
