JVASP-12818_Na5InS4 NEB_v2 image 04     
   1.0000000000000000     
     6.8330688911791304    0.0000000000000000   -0.1272470229470229
    -0.0000000000000010   17.6718505513838551    0.0000000000000010
    -0.0048172062806638    0.0000000000000000    7.8804846921668430
   Na   In   S 
    19     4    16
Direct
  0.5236413095654910  0.3058934148949604  0.7472998133034849
  0.3392688267726243  0.0128726952585438  0.3324130985684519
  0.3522686829594903  0.2392089157566843  0.3414669508739365
  0.6403989207290053  0.4848316550027647  0.6810997146467912
  0.9483905001101363  0.1340103318664845  0.5303672605454395
  0.0269618819441817  0.3714751316887117  0.4969549195411105
  0.6742470080340581  0.1291247075962758  0.1524540132679064
  0.9942896565907162  0.0012683975987784  0.9966096315839579
  0.0320547921403644  0.2590646933080905  0.9826086341050626
  0.6521118032196895  0.7619646441099022  0.6615094173289080
  0.3441143763656598  0.5111148546412920  0.3390387931391032
  0.3445186297324057  0.7379200286263341  0.3324065853818041
  0.6524681924687030  0.9883694634194526  0.6617705695352285
  0.9623727616562192  0.6228166770246020  0.5287980982273126
  0.0296909983582410  0.8753936689349899  0.4702830537668561
  0.6784000315587022  0.6196558140713861  0.1530161269844257
  0.3311566919128381  0.8753948915668701  0.8431951394573645
  0.0514835690467237  0.4863074008729100  0.9921695566615796
  0.9957106321968610  0.7500941704408319  0.9992456718456992
  0.6553324043920412  0.3760322211535154  0.1784399406650579
  0.3473272944094603  0.1238681002519471  0.8143612429137477
  0.6442088136811108  0.8753121799674517  0.1792456479755486
  0.3475181350789711  0.6272873978087432  0.8171603247515264
  0.7828921967946840  0.3756056014874574  0.8873081393405613
  0.2368017229705615  0.1264691900804138  0.1153570692032275
  0.2261662319466353  0.0051846465126317  0.6673134845874813
  0.7660355081794634  0.2583432008771780  0.3347688177983201
  0.7659516598405105  0.4919679456279766  0.3444217172160151
  0.2208195512796181  0.2393862325794274  0.6646453258072995
  0.7150525695172831  0.1235511549055133  0.8156530582051076
  0.2853715227026612  0.3751909626634813  0.1869907595091007
  0.7583840917026237  0.8750306156024621  0.8798396206880028
  0.2367184458385836  0.6245572719171264  0.1171392565666451
  0.2297334679302310  0.5096003615553855  0.6681167709023228
  0.7654213677030910  0.7565494333764562  0.3268875751153644
  0.7642164749373066  0.9937205919902610  0.3274371854700178
  0.2266905019681289  0.7451490157145031  0.6670393697233195
  0.7166894480648693  0.6263461930709084  0.8141213744983204
  0.2740367178634102  0.8750334783472624  0.1815430731117331

             NaN             NaN             NaN
             NaN             NaN             NaN
             NaN             NaN             NaN
             NaN             NaN             NaN
             NaN             NaN             NaN
             NaN             NaN             NaN
             NaN             NaN             NaN
             NaN             NaN             NaN
             NaN             NaN             NaN
             NaN             NaN             NaN
             NaN             NaN             NaN
             NaN             NaN             NaN
             NaN             NaN             NaN
             NaN             NaN             NaN
             NaN             NaN             NaN
             NaN             NaN             NaN
             NaN             NaN             NaN
             NaN             NaN             NaN
             NaN             NaN             NaN
             NaN             NaN             NaN
             NaN             NaN             NaN
             NaN             NaN             NaN
             NaN             NaN             NaN
             NaN             NaN             NaN
             NaN             NaN             NaN
             NaN             NaN             NaN
             NaN             NaN             NaN
             NaN             NaN             NaN
             NaN             NaN             NaN
             NaN             NaN             NaN
             NaN             NaN             NaN
             NaN             NaN             NaN
             NaN             NaN             NaN
             NaN             NaN             NaN
             NaN             NaN             NaN
             NaN             NaN             NaN
             NaN             NaN             NaN
             NaN             NaN             NaN
             NaN             NaN             NaN
