JVASP-12818_Na5InS4 NEB_v2 image 04
  1.0
      6.8330688911791304      0.0000000000000000     -0.1272470229470229
     -0.0000000000000010     17.6718505513838551      0.0000000000000010
     -0.0048172062806638      0.0000000000000000      7.8804846921668430
  Na  In  S
  19  4  16
Direct
  0.5236413095654927  0.3058934148949569  0.7472998133034847
  0.3392688267726268  0.0128726952585406  0.3324130985684534
  0.3522686829594898  0.2392089157566836  0.3414669508739357
  0.6403989207290056  0.4848316550027645  0.6810997146467931
  0.9483905001101389  0.1340103318664846  0.5303672605454415
  0.0269618819441798  0.3714751316887109  0.4969549195411094
  0.6742470080340617  0.1291247075962751  0.1524540132679047
  0.9942896565907181  0.0012683975987754  0.9966096315839553
  0.0320547921403641  0.2590646933080934  0.9826086341050627
  0.6521118032196871  0.7619646441099018  0.6615094173289097
  0.3441143763656575  0.5111148546412931  0.3390387931391013
  0.3445186297324061  0.7379200286263337  0.3324065853818071
  0.6524681924687051  0.9883694634194519  0.6617705695352294
  0.9623727616562184  0.6228166770246009  0.5287980982273132
  0.0296909983582396  0.8753936689349890  0.4702830537668596
  0.6784000315586989  0.6196558140713874  0.1530161269844260
  0.3311566919128417  0.8753948915668736  0.8431951394573671
  0.0514835690467232  0.4863074008729095  0.9921695566615815
  0.9957106321968628  0.7500941704408309  0.9992456718456957
  0.6553324043920380  0.3760322211535163  0.1784399406650569
  0.3473272944094596  0.1238681002519445  0.8143612429137504
  0.6442088136811142  0.8753121799674487  0.1792456479755468
  0.3475181350789694  0.6272873978087408  0.8171603247515288
  0.7828921967946869  0.3756056014874579  0.8873081393405626
  0.2368017229705613  0.1264691900804121  0.1153570692032271
  0.2261662319466383  0.0051846465126292  0.6673134845874823
  0.7660355081794661  0.2583432008771789  0.3347688177983214
  0.7659516598405109  0.4919679456279791  0.3444217172160159
  0.2208195512796153  0.2393862325794247  0.6646453258073016
  0.7150525695172867  0.1235511549055154  0.8156530582051044
  0.2853715227026619  0.3751909626634837  0.1869907595091033
  0.7583840917026261  0.8750306156024600  0.8798396206880006
  0.2367184458385838  0.6245572719171245  0.1171392565666469
  0.2297334679302296  0.5096003615553837  0.6681167709023258
  0.7654213677030929  0.7565494333764550  0.3268875751153613
  0.7642164749373032  0.9937205919902623  0.3274371854700158
  0.2266905019681319  0.7451490157145050  0.6670393697233162
  0.7166894480648681  0.6263461930709059  0.8141213744983227
  0.2740367178634090  0.8750334783472637  0.1815430731117358
