Na2 S1                                  
   1.0000000000000000     
     3.9844213074138017    0.0000000004474571    2.3004067134374386
     1.3281407699816672    3.7565492795122188    2.3004067134374386
     0.0000000000000000    0.0000000000000000    4.6008134268748773
   Na   S 
     2     1
Direct
  0.2500000000000000  0.2500000000000000  0.2500000000000000
  0.7500000000000000  0.7500000000000000  0.7500000000000000
 -0.0000000000000000  0.0000000000000000  0.0000000000000000

  0.00000000E+00  0.00000000E+00  0.00000000E+00
  0.00000000E+00  0.00000000E+00  0.00000000E+00
  0.00000000E+00  0.00000000E+00  0.00000000E+00
