S32                                     
   1.0000000000000000     
     8.2430106966207610    0.0038206972733922   -2.1033543169554392
    -2.2997360752957139    7.9157100980124149   -2.1033543176311138
    -0.0523147750580222   -0.0697090575925957   13.5511901797094332
   S 
    32
Direct
  0.1452113885733360  0.0472633237953314  0.9040575791816010
  0.1432077546139318  0.7411538093919645  0.5959424208184025
  0.9527366762047935  0.8547886114265056  0.5959424208183550
  0.2588461906079348  0.8567922453862027  0.9040575791816411
  0.8547886114266640  0.9527366762046687  0.0959424208183987
  0.8567922453860680  0.2588461906080354  0.4040575791815976
  0.0472633237952069  0.1452113885734945  0.4040575791816448
  0.7411538093920652  0.1432077546137974  0.0959424208183587
  0.3127575008403713  0.2713431484465986  0.0082275545416344
  0.2631145839051659  0.8045309462988995  0.4917724454585555
  0.7286568515534967  0.6872424991595348  0.4917724454583048
  0.1954690537009630  0.7368854160949694  0.0082275545415051
  0.6872424991596285  0.7286568515534008  0.9917724454583657
  0.7368854160948343  0.1954690537011005  0.5082275545414445
  0.2713431484465030  0.3127575008404651  0.5082275545416948
  0.8045309462990364  0.2631145839050300  0.9917724454584953
  0.2642228251121122  0.3183613505100998  0.1519582338420596
  0.1664031166681079  0.6122625912700915  0.3480417661579289
  0.6816386494898415  0.7357771748877796  0.3480417661579094
  0.3877364087299429  0.8335968833320268  0.1519582338421023
  0.7357771748878880  0.6816386494898997  0.8480417661579407
  0.8335968833318921  0.3877364087299107  0.6519582338420713
  0.3183613505101585  0.2642228251122207  0.6519582338420911
  0.6122625912700600  0.1664031166679733  0.8480417661578981
  0.4328664216415925  0.2476103353633528  0.2570608003776536
  0.9905485349856945  0.6758056212639012  0.2429391996222851
  0.7523896646366087  0.5671335783583628  0.2429391996223222
  0.3241943787361065  0.0094514650143804  0.2570608003777389
  0.5671335783584074  0.7523896646366469  0.7429391996223463
  0.0094514650143052  0.3241943787360986  0.7570608003777144
  0.2476103353633912  0.4328664216416371  0.7570608003776779
  0.6758056212638939  0.9905485349856190  0.7429391996222610

  0.00000000E+00  0.00000000E+00  0.00000000E+00
  0.00000000E+00  0.00000000E+00  0.00000000E+00
  0.00000000E+00  0.00000000E+00  0.00000000E+00
  0.00000000E+00  0.00000000E+00  0.00000000E+00
  0.00000000E+00  0.00000000E+00  0.00000000E+00
  0.00000000E+00  0.00000000E+00  0.00000000E+00
  0.00000000E+00  0.00000000E+00  0.00000000E+00
  0.00000000E+00  0.00000000E+00  0.00000000E+00
  0.00000000E+00  0.00000000E+00  0.00000000E+00
  0.00000000E+00  0.00000000E+00  0.00000000E+00
  0.00000000E+00  0.00000000E+00  0.00000000E+00
  0.00000000E+00  0.00000000E+00  0.00000000E+00
  0.00000000E+00  0.00000000E+00  0.00000000E+00
  0.00000000E+00  0.00000000E+00  0.00000000E+00
  0.00000000E+00  0.00000000E+00  0.00000000E+00
  0.00000000E+00  0.00000000E+00  0.00000000E+00
  0.00000000E+00  0.00000000E+00  0.00000000E+00
  0.00000000E+00  0.00000000E+00  0.00000000E+00
  0.00000000E+00  0.00000000E+00  0.00000000E+00
  0.00000000E+00  0.00000000E+00  0.00000000E+00
  0.00000000E+00  0.00000000E+00  0.00000000E+00
  0.00000000E+00  0.00000000E+00  0.00000000E+00
  0.00000000E+00  0.00000000E+00  0.00000000E+00
  0.00000000E+00  0.00000000E+00  0.00000000E+00
  0.00000000E+00  0.00000000E+00  0.00000000E+00
  0.00000000E+00  0.00000000E+00  0.00000000E+00
  0.00000000E+00  0.00000000E+00  0.00000000E+00
  0.00000000E+00  0.00000000E+00  0.00000000E+00
  0.00000000E+00  0.00000000E+00  0.00000000E+00
  0.00000000E+00  0.00000000E+00  0.00000000E+00
  0.00000000E+00  0.00000000E+00  0.00000000E+00
  0.00000000E+00  0.00000000E+00  0.00000000E+00
