S32
1.0
   8.2272484000000006    0.0214545400000000   -2.1053268599999999
  -2.2784001200000001    7.9055032599999997   -2.1053268599999999
  -0.0525703200000000   -0.0700495800000000   13.5630888800000005
S
32
direct
   0.1452646800000000    0.0479214100000000    0.9049370600000000 S
   0.1429863600000000    0.7403276200000000    0.5950629400000000 S
   0.9520785899999999    0.8547353200000000    0.5950629400000000 S
   0.2596723800000000    0.8570136400000000    0.9049370600000000 S
   0.8547353200000000    0.9520785899999999    0.0950629400000000 S
   0.8570136400000000    0.2596723800000000    0.4049370600000000 S
   0.0479214100000000    0.1452646800000000    0.4049370600000000 S
   0.7403276200000000    0.1429863600000000    0.0950629400000000 S
   0.3123540700000000    0.2722056700000000    0.0087878000000000 S
   0.2634168600000000    0.8035672699999999    0.4912122000000000 S
   0.7277943300000000    0.6876459300000000    0.4912122000000000 S
   0.1964327300000000    0.7365831400000000    0.0087878000000000 S
   0.6876459300000000    0.7277943300000000    0.9912122000000000 S
   0.7365831400000000    0.1964327300000000    0.5087878000000000 S
   0.2722056700000000    0.3123540700000000    0.5087878000000000 S
   0.8035672699999999    0.2634168600000000    0.9912122000000000 S
   0.2631618500000000    0.3190720100000000    0.1521795500000000 S
   0.1668924600000000    0.6109803000000000    0.3478204500000000 S
   0.6809279900000000    0.7368381500000000    0.3478204500000000 S
   0.3890187000000000    0.8331075400000000    0.1521795500000000 S
   0.7368381500000000    0.6809279900000000    0.8478204499999999 S
   0.8331075400000000    0.3890187000000000    0.6521795500000001 S
   0.3190720100000000    0.2631618500000000    0.6521795500000001 S
   0.6109803000000000    0.1668924600000000    0.8478204499999999 S
   0.4323309200000000    0.2477266600000000    0.2570718300000000 S
   0.9906538300000000    0.6752590900000000    0.2429281700000000 S
   0.7522733400000000    0.5676690800000000    0.2429281700000000 S
   0.3247409100000000    0.0093461700000000    0.2570718300000000 S
   0.5676690800000000    0.7522733400000000    0.7429281700000000 S
   0.0093461700000000    0.3247409100000000    0.7570718300000000 S
   0.2477266600000000    0.4323309200000000    0.7570718300000000 S
   0.6752590900000000    0.9906538300000000    0.7429281700000000 S
