Na1 Si1 S3
1.0
   4.6206227552701389    0.0000000000000000   -0.0000000000000000
   0.0000000000000000    4.6206227552701389   -0.0000000000000000
   0.0000000000000000    0.0000000000000000    4.6206227552701389
Na Si S
1 1 3
direct
   0.0000000000000000    0.0000000000000000    0.0000000000000000 Na
   0.5000000678951508    0.5000000678951508    0.5000000678951508 Si
   0.5000000678951508    0.5000000678951508    0.0000000000000000 S
   0.5000000678951508    0.0000000000000000    0.5000000678951508 S
   0.0000000000000000    0.5000000678951508    0.5000000678951508 S
