Na1 Si1 S3                              
   1.0000000000000000     
     4.6351897813540255   -0.0000000000000000   -0.0000000000000000
    -0.0000000000000000    4.6351897813540255   -0.0000000000000000
     0.0000000000000000    0.0000000000000000    4.6351897813540255
   Na   Si   S 
     1     1     3
Direct
 -0.0000000000000000 -0.0000000000000000 -0.0000000000000000
  0.5000000678951508  0.5000000678951508  0.5000000678951508
  0.5000000678951508  0.5000000678951508 -0.0000000000000000
  0.5000000678951508 -0.0000000000000000  0.5000000678951508
 -0.0000000000000000  0.5000000678951508  0.5000000678951508

  0.00000000E+00  0.00000000E+00  0.00000000E+00
  0.00000000E+00  0.00000000E+00  0.00000000E+00
  0.00000000E+00  0.00000000E+00  0.00000000E+00
  0.00000000E+00  0.00000000E+00  0.00000000E+00
  0.00000000E+00  0.00000000E+00  0.00000000E+00
