Na5AlS4 bottleneck NEB image 10
  1.0
     12.1026382039385112      0.0000000000000000      0.0000000000000007
     -0.0000000000000004      7.0938170788834114      0.0000000000000004
      0.0000000000000000      0.0000000000000000     21.6510149562332330
  Na  Al  S
  39  8  32
Direct
  0.3481683835477072  0.9071272374510281  0.4985495312267094
  0.6497791072413789  0.4087780549209099  0.9978467237247928
  0.1556894087932152  0.1036975344669687  0.9982824178108539
  0.1523945452243271  0.4088462534556402  0.4988376061574850
  0.3343185994185845  0.5855137966669308  0.9919843385455619
  0.6518536700601222  0.0907140533198820  0.5011585789387387
  0.8479115853543092  0.5911125510723727  0.5011949016194490
  0.8577777261634358  0.9041691066909209  0.9996728860586865
  0.2877732313162983  0.5507098213682629  0.3626090408327057
  0.7142332517075892  0.0483453355099586  0.1365713059405694
  0.2120911372701513  0.0512013237573847  0.3628094218158682
  0.2861722689426506  0.9481744491326458  0.8652088109068057
  0.7123718939948502  0.4475934803188071  0.6376220364784252
  0.7875083587254835  0.9488361445874243  0.6381756892328068
  0.7863490463544011  0.5500241760139668  0.1349340563185412
  0.5524879193286246  0.5609845929900833  0.4345369583333683
  0.4508443357631900  0.0571953847279835  0.0658438172941471
  0.9596130438179291  0.4424090849734075  0.9336536090429015
  0.9472559304409662  0.0615865089831923  0.4351329769131042
  0.5545952182867359  0.9370329221676882  0.9352597206664688
  0.4466473767695547  0.4366522950291967  0.5656439802274685
  0.0538932851618233  0.9381620246703017  0.5663456605758138
  0.0526131603259229  0.5616280862235952  0.0678076456896509
  0.5837563078865977  0.3835892023358896  0.2526903128163474
  0.4162427700516475  0.8829162754227949  0.2465463484989895
  0.9154761293434691  0.6209313766763047  0.7525173358287870
  0.9162339180595306  0.8853746603550683  0.2532759273277905
  0.5803273712697891  0.1131844527058955  0.7529591791343109
  0.4077463590789989  0.6185616809177348  0.7499385715371181
  0.0972621684648077  0.1485853492203123  0.7530045707827195
  0.0848225696050649  0.3840931913052848  0.2471876969449621
  0.8343982747758332  0.1060534616881804  0.8314900996197666
  0.1629384126991778  0.6107827898358956  0.6697146631392574
  0.6637127647082683  0.8921901269989337  0.3305321370703015
  0.6623272517956283  0.6022075004945552  0.8300573649838173
  0.8357852147001500  0.3938106431671393  0.3302541425444852
  0.1654403952523741  0.8922426190581454  0.1687183592529445
  0.3380213763057174  0.3903698134763322  0.1681630510407662
  0.3352717055851418  0.1048629301093132  0.6684665246259673
  0.0391541339163520  0.8294763104617838  0.8744070086101057
  0.9597298229299273  0.3325327027988871  0.6260706494195875
  0.4589673675660420  0.1664910258714114  0.3740788906155348
  0.4500049412010154  0.3347725705268269  0.8738715354616468
  0.0408763632326716  0.6669503038233303  0.3743615764749315
  0.9600638261208208  0.1672608956158819  0.1251349776279715
  0.5417578993498772  0.6644938776111131  0.1246624957707906
  0.5402870149736313  0.8307819597894135  0.6256345321275636
  0.3732550290888266  0.2019679069622230  0.9595017420873340
  0.6304741708303376  0.7066387577233543  0.5422544514988252
  0.1304034553871494  0.7922031645553070  0.4577629151204592
  0.1222228547502276  0.7242835727683405  0.9619735308205865
  0.3693190310593747  0.2914131408830728  0.4574752303069388
  0.6357825064582271  0.7893637534397208  0.0427929497430634
  0.8725221295793828  0.2910800342981270  0.0408771351822938
  0.8689372786609165  0.2067709897819976  0.5431141414417798
  0.4473230365958252  0.8485311968846105  0.3766991986300098
  0.5554410507599988  0.3468738184508290  0.1226502105404426
  0.0501586498874102  0.1437885374144831  0.8791451160420630
  0.0521154199758156  0.3489634921985021  0.3769869949162654
  0.4490681623997137  0.6522251892554498  0.8778273036830417
  0.5527370769121905  0.1489381245616503  0.6229170528460239
  0.9465634324289773  0.6503914903041256  0.6228149094771892
  0.9471462389941225  0.8497044754190092  0.1240886764533246
  0.1407488309746315  0.2481463245147637  0.6235295536129202
  0.8589457065052611  0.7372136210911721  0.8747159015574032
  0.3610396072889388  0.7511138172921272  0.1225184468840022
  0.3593799150606263  0.7439312725274434  0.6232929532228394
  0.1407074430473161  0.2547149152536899  0.1243675480955043
  0.8601288860785181  0.7553994168272020  0.3761578913073840
  0.6398317204324139  0.2544257772614578  0.3759851001587189
  0.6332181913154995  0.2428157509689534  0.8735734854732055
  0.6306551317640985  0.7563909827637916  0.2131250055515311
  0.3689982415150860  0.2571038157507373  0.2861975631895882
  0.8722312691560377  0.2435516924313833  0.7144204713243236
  0.8691969225063469  0.2596555009765133  0.2125033747594632
  0.6288322251241413  0.7403478051589836  0.7134299992199012
  0.3651302309683515  0.2394460510348763  0.7854486972608933
  0.1307016314754760  0.7553459071759862  0.7862351723340849
  0.1308751349332185  0.7578912602403506  0.2864935432006353
