generated by phonopy
   1.0
    19.3976049016615057    0.0000000000000000    0.0000000000000012
     0.0000000000000030   19.3976049016615057    0.0000000000000012
     0.0000000000000000    0.0000000000000000   11.9550323773583678
Na S
  64  128
Direct
  0.9995611289913729  0.0000000000000000  0.8280256573836585
  0.5000000000000000  0.0000000000000000  0.8284645283922856
  0.0000000000000000  0.5000000000000000  0.8284645283922856
  0.5000000000000000  0.5000000000000000  0.8284645283922856
  0.0000000000000000  0.0000000000000000  0.1715354716077145
  0.5000000000000000  0.0000000000000000  0.1715354716077145
  0.0000000000000000  0.5000000000000000  0.1715354716077145
  0.5000000000000000  0.5000000000000000  0.1715354716077145
  0.0000000000000000  0.2500000000000000  0.4215354716077143
  0.4999999999999999  0.2500000000000000  0.4215354716077143
  0.0000000000000000  0.7500000000000000  0.4215354716077143
  0.5000000000000000  0.7500000000000000  0.4215354716077143
  0.0000000000000000  0.2500000000000000  0.0784645283922855
  0.4999999999999999  0.2500000000000000  0.0784645283922855
  0.0000000000000000  0.7500000000000000  0.0784645283922855
  0.5000000000000000  0.7500000000000000  0.0784645283922855
  0.1250000000000000  0.1143387714251609  0.3750000000000000
  0.6250000000000000  0.1143387714251609  0.3749999999999999
  0.1250000000000000  0.6143387714251609  0.3749999999999999
  0.6250000000000000  0.6143387714251609  0.3750000000000000
  0.3856612285748392  0.1250000000000000  0.6250000000000000
  0.8856612285748392  0.1250000000000000  0.6250000000000000
  0.3856612285748392  0.6250000000000000  0.6250000000000000
  0.8856612285748393  0.6250000000000000  0.6250000000000000
  0.3643387714251608  0.1250000000000000  0.1250000000000000
  0.8643387714251608  0.1250000000000000  0.1250000000000000
  0.3643387714251608  0.6250000000000000  0.1250000000000000
  0.8643387714251608  0.6250000000000000  0.1250000000000000
  0.1250000000000000  0.1356612285748390  0.8750000000000000
  0.6250000000000000  0.1356612285748390  0.8750000000000000
  0.1250000000000000  0.6356612285748390  0.8750000000000000
  0.6250000000000000  0.6356612285748390  0.8750000000000001
  0.2500000000000000  0.2500000000000000  0.3284645283922857
  0.7500000000000000  0.2500000000000000  0.3284645283922857
  0.2500000000000001  0.7500000000000000  0.3284645283922857
  0.7500000000000000  0.7500000000000000  0.3284645283922857
  0.2500000000000000  0.2500000000000000  0.6715354716077144
  0.7500000000000000  0.2500000000000000  0.6715354716077144
  0.2500000000000001  0.7500000000000000  0.6715354716077144
  0.7500000000000000  0.7500000000000000  0.6715354716077145
  0.2500000000000000  0.0000000000000000  0.9215354716077144
  0.7500000000000000  0.0000000000000000  0.9215354716077145
  0.2500000000000001  0.5000000000000000  0.9215354716077145
  0.7500000000000000  0.5000000000000000  0.9215354716077144
  0.2500000000000000  0.0000000000000000  0.5784645283922856
  0.7500000000000000  0.0000000000000000  0.5784645283922856
  0.2500000000000001  0.5000000000000000  0.5784645283922856
  0.7500000000000000  0.5000000000000000  0.5784645283922856
  0.3750000000000000  0.3643387714251608  0.8750000000000000
  0.8749999999999999  0.3643387714251608  0.8750000000000001
  0.3750000000000000  0.8643387714251608  0.8750000000000001
  0.8750000000000001  0.8643387714251608  0.8750000000000000
  0.1356612285748390  0.3750000000000000  0.1250000000000000
  0.6356612285748390  0.3750000000000000  0.1250000000000000
  0.1356612285748390  0.8750000000000000  0.1250000000000000
  0.6356612285748390  0.8750000000000000  0.1250000000000000
  0.1143387714251609  0.3750000000000000  0.6250000000000000
  0.6143387714251609  0.3750000000000000  0.6250000000000000
  0.1143387714251609  0.8750000000000000  0.6250000000000000
  0.6143387714251609  0.8750000000000000  0.6250000000000000
  0.3750000000000000  0.3856612285748392  0.3750000000000001
  0.8749999999999999  0.3856612285748392  0.3750000000000000
  0.3750000000000000  0.8856612285748392  0.3750000000000000
  0.8750000000000001  0.8856612285748392  0.3750000000000000
  0.1239443071796252  0.2335754739908654  0.2039098330122251
  0.6239443071796251  0.2335754739908654  0.2039098330122251
  0.1239443071796252  0.7335754739908654  0.2039098330122251
  0.6239443071796251  0.7335754739908654  0.2039098330122251
  0.2664245260091345  0.1239443071796252  0.7960901669877748
  0.7664245260091345  0.1239443071796252  0.7960901669877747
  0.2664245260091345  0.6239443071796251  0.7960901669877747
  0.7664245260091345  0.6239443071796251  0.7960901669877748
  0.4835754739908655  0.1260556928203750  0.2960901669877747
  0.9835754739908655  0.1260556928203750  0.2960901669877747
  0.4835754739908655  0.6260556928203750  0.2960901669877747
  0.9835754739908656  0.6260556928203750  0.2960901669877747
  0.1239443071796252  0.0164245260091346  0.0460901669877749
  0.6239443071796251  0.0164245260091346  0.0460901669877749
  0.1239443071796251  0.5164245260091346  0.0460901669877749
  0.6239443071796251  0.5164245260091346  0.0460901669877749
  0.3760556928203751  0.4835754739908655  0.0460901669877749
  0.8760556928203750  0.4835754739908655  0.0460901669877749
  0.3760556928203750  0.9835754739908655  0.0460901669877749
  0.8760556928203752  0.9835754739908655  0.0460901669877749
  0.1260556928203750  0.0164245260091346  0.7039098330122252
  0.6260556928203750  0.0164245260091346  0.7039098330122253
  0.1260556928203750  0.5164245260091346  0.7039098330122253
  0.6260556928203750  0.5164245260091346  0.7039098330122252
  0.2335754739908654  0.3739443071796250  0.4539098330122254
  0.7335754739908654  0.3739443071796250  0.4539098330122253
  0.2335754739908654  0.8739443071796249  0.4539098330122253
  0.7335754739908654  0.8739443071796249  0.4539098330122253
  0.2664245260091345  0.1260556928203750  0.4539098330122253
  0.7664245260091345  0.1260556928203750  0.4539098330122253
  0.2664245260091345  0.6260556928203750  0.4539098330122253
  0.7664245260091345  0.6260556928203750  0.4539098330122254
  0.1907403383006573  0.1764895761501946  0.1026814737830609
  0.6907403383006574  0.1764895761501946  0.1026814737830609
  0.1907403383006573  0.6764895761501947  0.1026814737830609
  0.6907403383006574  0.6764895761501947  0.1026814737830609
  0.0735104238498054  0.4407403383006571  0.3973185262169391
  0.5735104238498053  0.4407403383006571  0.3973185262169391
  0.0735104238498054  0.9407403383006573  0.3973185262169391
  0.5735104238498054  0.9407403383006573  0.3973185262169391
  0.1764895761501946  0.3092596616993429  0.8973185262169391
  0.6764895761501948  0.3092596616993429  0.8973185262169390
  0.1764895761501946  0.8092596616993428  0.8973185262169390
  0.6764895761501947  0.8092596616993428  0.8973185262169391
  0.1907403383006573  0.0735104238498054  0.1473185262169392
  0.6907403383006574  0.0735104238498054  0.1473185262169392
  0.1907403383006573  0.5735104238498053  0.1473185262169392
  0.6907403383006574  0.5735104238498053  0.1473185262169392
  0.3092596616993429  0.4264895761501948  0.1473185262169392
  0.8092596616993428  0.4264895761501948  0.1473185262169392
  0.3092596616993428  0.9264895761501948  0.1473185262169392
  0.8092596616993428  0.9264895761501948  0.1473185262169392
  0.0592596616993427  0.0735104238498054  0.6026814737830609
  0.5592596616993426  0.0735104238498054  0.6026814737830609
  0.0592596616993427  0.5735104238498053  0.6026814737830609
  0.5592596616993426  0.5735104238498053  0.6026814737830609
  0.1764895761501946  0.4407403383006571  0.3526814737830609
  0.6764895761501947  0.4407403383006571  0.3526814737830609
  0.1764895761501946  0.9407403383006573  0.3526814737830609
  0.6764895761501948  0.9407403383006573  0.3526814737830610
  0.3235104238498052  0.0592596616993427  0.3526814737830609
  0.8235104238498052  0.0592596616993427  0.3526814737830610
  0.3235104238498052  0.5592596616993426  0.3526814737830610
  0.8235104238498052  0.5592596616993426  0.3526814737830609
  0.3739443071796250  0.4835754739908655  0.7039098330122252
  0.8739443071796248  0.4835754739908655  0.7039098330122252
  0.3739443071796249  0.9835754739908655  0.7039098330122252
  0.8739443071796249  0.9835754739908655  0.7039098330122252
  0.0164245260091346  0.3739443071796250  0.2960901669877747
  0.5164245260091345  0.3739443071796250  0.2960901669877747
  0.0164245260091346  0.8739443071796249  0.2960901669877747
  0.5164245260091345  0.8739443071796249  0.2960901669877747
  0.2335754739908654  0.3760556928203750  0.7960901669877748
  0.7335754739908654  0.3760556928203750  0.7960901669877749
  0.2335754739908654  0.8760556928203751  0.7960901669877749
  0.7335754739908654  0.8760556928203751  0.7960901669877748
  0.3739443071796250  0.2664245260091345  0.5460901669877748
  0.8739443071796249  0.2664245260091345  0.5460901669877748
  0.3739443071796250  0.7664245260091345  0.5460901669877748
  0.8739443071796249  0.7664245260091345  0.5460901669877748
  0.1260556928203750  0.2335754739908654  0.5460901669877748
  0.6260556928203750  0.2335754739908654  0.5460901669877748
  0.1260556928203750  0.7335754739908654  0.5460901669877748
  0.6260556928203750  0.7335754739908654  0.5460901669877748
  0.3760556928203750  0.2664245260091345  0.2039098330122251
  0.8760556928203751  0.2664245260091345  0.2039098330122251
  0.3760556928203751  0.7664245260091345  0.2039098330122251
  0.8760556928203752  0.7664245260091345  0.2039098330122251
  0.4835754739908655  0.1239443071796252  0.9539098330122252
  0.9835754739908655  0.1239443071796252  0.9539098330122252
  0.4835754739908655  0.6239443071796251  0.9539098330122252
  0.9835754739908656  0.6239443071796251  0.9539098330122252
  0.0164245260091346  0.3760556928203750  0.9539098330122252
  0.5164245260091345  0.3760556928203750  0.9539098330122252
  0.0164245260091346  0.8760556928203751  0.9539098330122252
  0.5164245260091345  0.8760556928203751  0.9539098330122253
  0.4407403383006571  0.4264895761501948  0.6026814737830609
  0.9407403383006572  0.4264895761501948  0.6026814737830609
  0.4407403383006571  0.9264895761501948  0.6026814737830609
  0.9407403383006574  0.9264895761501948  0.6026814737830609
  0.3235104238498052  0.1907403383006573  0.8973185262169391
  0.8235104238498052  0.1907403383006573  0.8973185262169392
  0.3235104238498052  0.6907403383006574  0.8973185262169392
  0.8235104238498052  0.6907403383006574  0.8973185262169391
  0.4264895761501948  0.0592596616993427  0.3973185262169391
  0.9264895761501948  0.0592596616993427  0.3973185262169391
  0.4264895761501948  0.5592596616993426  0.3973185262169391
  0.9264895761501947  0.5592596616993426  0.3973185262169391
  0.4407403383006571  0.3235104238498052  0.6473185262169391
  0.9407403383006573  0.3235104238498052  0.6473185262169391
  0.4407403383006571  0.8235104238498052  0.6473185262169391
  0.9407403383006574  0.8235104238498052  0.6473185262169391
  0.0592596616993427  0.1764895761501946  0.6473185262169391
  0.5592596616993426  0.1764895761501946  0.6473185262169391
  0.0592596616993427  0.6764895761501947  0.6473185262169391
  0.5592596616993426  0.6764895761501947  0.6473185262169391
  0.3092596616993429  0.3235104238498052  0.1026814737830609
  0.8092596616993429  0.3235104238498052  0.1026814737830609
  0.3092596616993429  0.8235104238498052  0.1026814737830609
  0.8092596616993428  0.8235104238498052  0.1026814737830609
  0.4264895761501948  0.1907403383006573  0.8526814737830609
  0.9264895761501948  0.1907403383006573  0.8526814737830609
  0.4264895761501948  0.6907403383006574  0.8526814737830609
  0.9264895761501948  0.6907403383006574  0.8526814737830609
  0.0735104238498054  0.3092596616993429  0.8526814737830609
  0.5735104238498054  0.3092596616993429  0.8526814737830609
  0.0735104238498054  0.8092596616993428  0.8526814737830609
  0.5735104238498053  0.8092596616993428  0.8526814737830610
