Na In S                                 
   1.0000000000000000     
     6.8330688911791304    0.0000000000000000   -0.1272470229470229
    -0.0000000000000005    8.8359252756919275    0.0000000000000005
    -0.0048172062806638    0.0000000000000000    7.8804846921668430
   Na   In   S 
     9     2     8
Direct
  0.6726558749186395  0.5262279837256898  0.6595383329804463
  0.0619311347436238  0.9906532875266407  0.0539205248509802
  0.3467118639037992  0.4788387956590014  0.3293039844654970
  0.6376291584031648  0.9834826380005381  0.6563151399059421
  0.0897671912659916  0.2277395966153577  0.4991890398637082
  0.0656099705902449  0.7856488010796809  0.4699529926360739
  0.6587376636098341  0.2153282612117309  0.1540724877459496
  0.3158808192779645  0.7566152612432262  0.8546343472608271
  0.9778315250197380  0.4939966798795297  0.0005158804773799
  0.6513565520931337  0.7565213672761715  0.1827750680659292
  0.3425435678666773  0.2566546808328738  0.8277275945327602
  0.7630989623461844  0.7568507352578138  0.8821647530923826
  0.2240020108131517  0.2553570937806811  0.1165440726126334
  0.2308422733168456  0.0086323038524796  0.6936000260854058
  0.7611949744758775  0.5132504293035041  0.3222493944009415
  0.7865850849967302  0.9823652445065463  0.3350862418951976
  0.2233110109822789  0.4896073859314498  0.6642847286458462
  0.7091863736140240  0.2546544891151470  0.8167209385069540
  0.2852715545170454  0.7496286793903977  0.1831963891281276

             NaN             NaN             NaN
             NaN             NaN             NaN
             NaN             NaN             NaN
             NaN             NaN             NaN
             NaN             NaN             NaN
             NaN             NaN             NaN
             NaN             NaN             NaN
             NaN             NaN             NaN
             NaN             NaN             NaN
             NaN             NaN             NaN
             NaN             NaN             NaN
             NaN             NaN             NaN
             NaN             NaN             NaN
             NaN             NaN             NaN
             NaN             NaN             NaN
             NaN             NaN             NaN
             NaN             NaN             NaN
             NaN             NaN             NaN
             NaN             NaN             NaN
