Na5InS4 bottleneck NEB image 09         
   1.0000000000000000     
     6.8330688911791304    0.0000000000000000   -0.1272470229470229
    -0.0000000000000005    8.8359252756919275    0.0000000000000005
    -0.0048172062806638    0.0000000000000000    7.8804846921668430
   Na   In   S 
     9     2     8
Direct
  0.6726665176658173  0.5256462176418211  0.6591423135649066
  0.3427827502672685  0.4350166002444027  0.3306467074848172
  0.6106664419657761  0.0297531342403659  0.6197154935667584
  0.9640696879019472  0.2033110622922365  0.5228792918128065
  0.0545663320630112  0.8358637668860922  0.4723564739146866
  0.6795640033132671  0.1799466272964736  0.1975097173628839
  0.3824652014007910  0.7778409998603664  0.8663083934218818
  0.0416538685947359  0.9792428344225428  0.0139646914627320
  0.9777304694985176  0.4936208281303820  0.0008817181643792
  0.6510373762078743  0.7565565391955573  0.1827447257624044
  0.3399633053031437  0.2563399900917105  0.8240293842625732
  0.7625150727582195  0.7566161928226336  0.8818455173762274
  0.2218177698416781  0.2532574684181341  0.1197001375267632
  0.2270666969716331  0.0144450135676166  0.6887449515221604
  0.7605892510465253  0.5130505504065042  0.3219674055123818
  0.7867696624457636  0.9823678701513572  0.3347994720117526
  0.2210023248410522  0.4849350852045546  0.6613529431210878
  0.7088654060741177  0.2544718443077016  0.8167085386449742
  0.2849864681839520  0.7495704595843051  0.1831602615397543

             NaN             NaN             NaN
             NaN             NaN             NaN
             NaN             NaN             NaN
             NaN             NaN             NaN
             NaN             NaN             NaN
             NaN             NaN             NaN
             NaN             NaN             NaN
             NaN             NaN             NaN
             NaN             NaN             NaN
             NaN             NaN             NaN
             NaN             NaN             NaN
             NaN             NaN             NaN
             NaN             NaN             NaN
             NaN             NaN             NaN
             NaN             NaN             NaN
             NaN             NaN             NaN
             NaN             NaN             NaN
             NaN             NaN             NaN
             NaN             NaN             NaN
