Na5InS4 bottleneck NEB image 09
  1.0
      6.8330688911791304      0.0000000000000000     -0.1272470229470229
     -0.0000000000000005      8.8359252756919275      0.0000000000000005
     -0.0048172062806638      0.0000000000000000      7.8804846921668430
  Na  In  S
  9  2  8
Direct
  0.6726665176658169  0.5256462176418182  0.6591423135649044
  0.3427827502672672  0.4350166002444031  0.3306467074848140
  0.6106664419657790  0.0297531342403664  0.6197154935667557
  0.9640696879019497  0.2033110622922365  0.5228792918128033
  0.0545663320630139  0.8358637668860931  0.4723564739146844
  0.6795640033132671  0.1799466272964751  0.1975097173628808
  0.3824652014007945  0.7778409998603664  0.8663083934218796
  0.0416538685947389  0.9792428344225397  0.0139646914627320
  0.9777304694985168  0.4936208281303827  0.0008817181643764
  0.6510373762078774  0.7565565391955550  0.1827447257624064
  0.3399633053031451  0.2563399900917112  0.8240293842625761
  0.7625150727582205  0.7566161928226355  0.8818455173762246
  0.2218177698416773  0.2532574684181361  0.1197001375267664
  0.2270666969716340  0.0144450135676188  0.6887449515221578
  0.7605892510465233  0.5130505504065027  0.3219674055123840
  0.7867696624457668  0.9823678701513587  0.3347994720117529
  0.2210023248410531  0.4849350852045579  0.6613529431210889
  0.7088654060741200  0.2544718443077031  0.8167085386449744
  0.2849864681839545  0.7495704595843024  0.1831602615397532
