Na In S 
 1.0000000000000000
     6.8330688911791304    0.0000000000000000   -0.1272470229470229
    -0.0000000000000005    8.8359252756919275    0.0000000000000005
    -0.0048172062806638    0.0000000000000000    7.8804846921668430
 Na  In  S  
   9   2   8
Direct
  0.6726558749186361  0.5262279837256915  0.6595383329804483
  0.0619311347436249 -0.0093467124733626  0.0539205248509819
  0.3467118639038013  0.4788387956590026  0.3293039844654964
  0.6376291584031668  0.9834826380005391  0.6563151399059430
  0.0897671912659888  0.2277395966153594  0.4991890398637070
  0.0656099705902447  0.7856488010796794  0.4699529926360739
  0.6587376636098349  0.2153282612117313  0.1540724877459516
  0.3158808192779621  0.7566152612432283  0.8546343472608238
 -0.0221684749802624  0.4939966798795273  0.0005158804773775
  0.6513565520931346  0.7565213672761721  0.1827750680659274
  0.3425435678666764  0.2566546808328761  0.8277275945327638
  0.7630989623461866  0.7568507352578133  0.8821647530923826
  0.2240020108131499  0.2553570937806819  0.1165440726126332
  0.2308422733168451  0.0086323038524789  0.6936000260854023
  0.7611949744758747  0.5132504293035066  0.3222493944009400
  0.7865850849967336  0.9823652445065453  0.3350862418951993
  0.2233110109822760  0.4896073859314506  0.6642847286458490
  0.7091863736140209  0.2546544891151500  0.8167209385069566
  0.2852715545170441  0.7496286793903959  0.1831963891281241
Cartesian
  0.0000000000000000  0.0000000000000000  0.0000000000000000
  0.0000000000000000  0.0000000000000000  0.0000000000000000
  0.0000000000000000  0.0000000000000000  0.0000000000000000
  0.0000000000000000  0.0000000000000000  0.0000000000000000
  0.0000000000000000  0.0000000000000000  0.0000000000000000
  0.0000000000000000  0.0000000000000000  0.0000000000000000
  0.0000000000000000  0.0000000000000000  0.0000000000000000
  0.0000000000000000  0.0000000000000000  0.0000000000000000
  0.0000000000000000  0.0000000000000000  0.0000000000000000
  0.0000000000000000  0.0000000000000000  0.0000000000000000
  0.0000000000000000  0.0000000000000000  0.0000000000000000
  0.0000000000000000  0.0000000000000000  0.0000000000000000
  0.0000000000000000  0.0000000000000000  0.0000000000000000
  0.0000000000000000  0.0000000000000000  0.0000000000000000
  0.0000000000000000  0.0000000000000000  0.0000000000000000
  0.0000000000000000  0.0000000000000000  0.0000000000000000
  0.0000000000000000  0.0000000000000000  0.0000000000000000
  0.0000000000000000  0.0000000000000000  0.0000000000000000
  0.0000000000000000  0.0000000000000000  0.0000000000000000
