Na4 Zn4 S6                              
   1.0000000000000000     
     7.0695720000000000    0.0000000000000000    0.0000000000000004
    -0.0000000000000004    6.1932313690209462    3.3029875575218175
     0.0000000000000000    0.0000000000000000    7.0420779400000004
   Na   Zn   S 
     4     4     6
Direct
  0.8369950000000017  0.8550919999999991  0.4012930000000026
  0.3369950000000017  0.1449080000000009  0.0987069999999974
  0.1630049999999983  0.1449080000000009  0.5987069999999974
  0.6630049999999983  0.8550919999999991  0.9012930000000026
  0.1177369999999982  0.6587829999999997  0.0689550000000025
  0.6177369999999982  0.3412170000000003  0.4310449999999975
  0.8822630000000018  0.3412170000000003  0.9310449999999975
  0.3822630000000018  0.6587829999999997  0.5689550000000025
  0.4061129999999977  0.6353330000000028  0.2412929999999989
  0.9061129999999977  0.3646669999999972  0.2587070000000011
  0.5938870000000023  0.3646669999999972  0.7587070000000011
  0.0938870000000023  0.6353330000000028  0.7412929999999989
  0.0000000000000000  0.0000000000000000 -0.0042601062151834
  0.5000000000000000  0.0000000000000000  0.5000000000000000

  0.00000000E+00  0.00000000E+00  0.00000000E+00
  0.00000000E+00  0.00000000E+00  0.00000000E+00
  0.00000000E+00  0.00000000E+00  0.00000000E+00
  0.00000000E+00  0.00000000E+00  0.00000000E+00
  0.00000000E+00  0.00000000E+00  0.00000000E+00
  0.00000000E+00  0.00000000E+00  0.00000000E+00
  0.00000000E+00  0.00000000E+00  0.00000000E+00
  0.00000000E+00  0.00000000E+00  0.00000000E+00
  0.00000000E+00  0.00000000E+00  0.00000000E+00
  0.00000000E+00  0.00000000E+00  0.00000000E+00
  0.00000000E+00  0.00000000E+00  0.00000000E+00
  0.00000000E+00  0.00000000E+00  0.00000000E+00
  0.00000000E+00  0.00000000E+00  0.00000000E+00
  0.00000000E+00  0.00000000E+00  0.00000000E+00
