Na4 Zn4 S6
1.0
   7.0695720000000000    0.0000000000000000    0.0000000000000004
  -0.0000000000000004    6.1932313690209462    3.3029875575218175
   0.0000000000000000    0.0000000000000000    7.0420779400000004
Na Zn S
4 4 6
direct
   0.8369950000000000    0.8550920000000000    0.4012930000000000 Na
   0.3369950000000000    0.1449080000000000    0.0987070000000000 Na
   0.1630050000000000    0.1449080000000000    0.5987070000000000 Na
   0.6630050000000000    0.8550920000000000    0.9012930000000000 Na
   0.1177370000000000    0.6587830000000000    0.0689550000000000 Zn
   0.6177370000000000    0.3412170000000000    0.4310450000000000 Zn
   0.8822630000000000    0.3412170000000000    0.9310450000000000 Zn
   0.3822630000000000    0.6587830000000000    0.5689550000000000 Zn
   0.4061130000000000    0.6353330000000000    0.2412930000000000 S
   0.9061129999999999    0.3646670000000000    0.2587070000000000 S
   0.5938870000000001    0.3646670000000000    0.7587070000000000 S
   0.0938870000000000    0.6353330000000000    0.7412930000000000 S
   0.0000000000000000    0.0000000000000000    0.0000000000000000 S
   0.5000000000000000    0.0000000000000000    0.5000000000000000 S
