mp-560538_Na3AlS3 NEB_v2 image 09       
   1.0000000000000000     
    12.1828203277415312    0.0000000000000000    0.0000000000000007
    -0.0000000000000005    7.5674693205415418    1.1970639402156102
     0.0000000000000000    0.0113082934473333   13.7304524371335805
   Na   Al   S 
    23     8    24
Direct
  0.0056276600032774  0.9651727076630294  0.7307954520980573
  0.7664144903713179  0.9895945760720721  0.0014513651485117
  0.8249038714909886  0.4867541753399465  0.7509842887895601
  0.7505919519938260  0.9825276169123427  0.5131824145793260
  0.9510713622349698  0.1037615909866147  0.3374720848070538
  0.2410107195407178  0.5514848326241122  0.4788096443079723
  0.8235847868037567  0.5094006397574447  0.2494950478443130
  0.2450084389715457  0.0291000709700739  0.4938620922532806
  0.7506143586033431  0.4838478152172385  0.0071603844779915
  0.3888106381319787  0.3645686049606809  0.6557756949426690
  0.2574483134045380  0.5033033124064801  0.9912620019193739
  0.2472763741623965  0.0106111639585507  0.9898061496325710
  0.7479375748936405  0.4817498037700787  0.5112985229803826
  0.1820902414699646  0.4878524400481510  0.2451243633940265
  0.0292455013902853  0.9101432177573585  0.1771186412525623
  0.5454443864301197  0.5978697659781389  0.3301029123201218
  0.3160919256502552  0.9712417649898342  0.7563837866309981
  0.3192104718369535  0.9885721149735431  0.2482538217667027
  0.1675843210000494  0.5075542651410103  0.7531886955134794
  0.4729646475881211  0.4026590911259547  0.1776976716219067
  0.6892960748047940  0.0070408235944299  0.7510617997662052
  0.5242453158177582  0.5763805514738678  0.8049108807530203
  0.6789026007767944  0.0040726542184544  0.2464175091812706
  0.0063521937406819  0.3237081305991723  0.0739630709948784
  0.0108756795269045  0.3428476218599812  0.5742594923670694
  0.5093239801494036  0.1761491860662403  0.4276736173938716
  0.4983776172610490  0.8277918509905717  0.5722567316550311
  0.5071348099797532  0.1627253893864804  0.9238747846707795
  0.4964960830900225  0.8215261291802847  0.0715126978147964
  0.9932362193553956  0.6862275474895583  0.4300589726880588
  0.9975922617721338  0.6615349448996781  0.9292476995363543
  0.3565637417079799  0.3004320616222032  0.8586917334523463
  0.1669074744609986  0.2098030887850939  0.1281442740368774
  0.3628602645636860  0.3301819389957998  0.3660042746789358
  0.1524362568077535  0.7883265927437861  0.8688573091608731
  0.9955453335546665  0.6123825083103114  0.0994304386553182
  0.6448699534835498  0.6829119845981211  0.1396691822341936
  0.8316263105234754  0.7864146493996671  0.3716285479574779
  0.1354182334510554  0.8439884100162800  0.3606539314937081
  0.3393096190948697  0.7142386843164559  0.6300191924712664
  0.5002829278937071  0.8716051874314203  0.9022218114446261
  0.6655839837683644  0.2832423758390163  0.8714777783735599
  0.8598411541074711  0.1815511295759364  0.1444592549943593
  0.1692528707840211  0.2253090964712356  0.6346974470994624
  0.0158435092748022  0.4002282745724699  0.4038103655423129
  0.6494107513555889  0.6939577029832691  0.6365395578573256
  0.5022473785354364  0.1109390881123460  0.0941609142155997
  0.6678849925992054  0.2864867548440841  0.3662096601578995
  0.8577501175022917  0.2030407867640065  0.6301117814590924
  0.0011368667700040  0.6326989515212844  0.5986773942763080
  0.9998442077751548  0.3715861425766107  0.9061931333826223
  0.8423920165173442  0.7793978299205051  0.8653940661700190
  0.5142546956635954  0.1163103947133735  0.5966441008265591
  0.3385458768755569  0.7046592406823535  0.1308239148954300
  0.4923257867759290  0.8897521918511018  0.4020575583839161

             NaN             NaN             NaN
             NaN             NaN             NaN
             NaN             NaN             NaN
             NaN             NaN             NaN
             NaN             NaN             NaN
             NaN             NaN             NaN
             NaN             NaN             NaN
             NaN             NaN             NaN
             NaN             NaN             NaN
             NaN             NaN             NaN
             NaN             NaN             NaN
             NaN             NaN             NaN
             NaN             NaN             NaN
             NaN             NaN             NaN
             NaN             NaN             NaN
             NaN             NaN             NaN
             NaN             NaN             NaN
             NaN             NaN             NaN
             NaN             NaN             NaN
             NaN             NaN             NaN
             NaN             NaN             NaN
             NaN             NaN             NaN
             NaN             NaN             NaN
             NaN             NaN             NaN
             NaN             NaN             NaN
             NaN             NaN             NaN
             NaN             NaN             NaN
             NaN             NaN             NaN
             NaN             NaN             NaN
             NaN             NaN             NaN
             NaN             NaN             NaN
             NaN             NaN             NaN
             NaN             NaN             NaN
             NaN             NaN             NaN
             NaN             NaN             NaN
             NaN             NaN             NaN
             NaN             NaN             NaN
             NaN             NaN             NaN
             NaN             NaN             NaN
             NaN             NaN             NaN
             NaN             NaN             NaN
             NaN             NaN             NaN
             NaN             NaN             NaN
             NaN             NaN             NaN
             NaN             NaN             NaN
             NaN             NaN             NaN
             NaN             NaN             NaN
             NaN             NaN             NaN
             NaN             NaN             NaN
             NaN             NaN             NaN
             NaN             NaN             NaN
             NaN             NaN             NaN
             NaN             NaN             NaN
             NaN             NaN             NaN
             NaN             NaN             NaN
