mp-560538_Na3AlS3 NEB_v2 image 09
  1.0
     12.1828203277415312      0.0000000000000000      0.0000000000000007
     -0.0000000000000005      7.5674693205415418      1.1970639402156102
      0.0000000000000000      0.0113082934473333     13.7304524371335805
  Na  Al  S
  23  8  24
Direct
  0.0056276600032799  0.9651727076630328  0.7307954520980591
  0.7664144903713176  0.9895945760720720  0.0014513651485135
  0.8249038714909906  0.4867541753399484  0.7509842887895604
  0.7505919519938259  0.9825276169123422  0.5131824145793236
  0.9510713622349692  0.1037615909866130  0.3374720848070514
  0.2410107195407209  0.5514848326241120  0.4788096443079692
  0.8235847868037591  0.5094006397574430  0.2494950478443150
  0.2450084389715436  0.0291000709700740  0.4938620922532835
  0.7506143586033452  0.4838478152172403  0.0071603844779905
  0.3888106381319760  0.3645686049606794  0.6557756949426696
  0.2574483134045382  0.5033033124064785  0.9912620019193745
  0.2472763741623988  0.0106111639585499  0.9898061496325681
  0.7479375748936423  0.4817498037700773  0.5112985229803850
  0.1820902414699638  0.4878524400481535  0.2451243633940288
  0.0292455013902819  0.9101432177573581  0.1771186412525613
  0.5454443864301228  0.5978697659781363  0.3301029123201188
  0.3160919256502550  0.9712417649898332  0.7563837866309978
  0.3192104718369534  0.9885721149735455  0.2482538217667019
  0.1675843210000501  0.5075542651410110  0.7531886955134779
  0.4729646475881195  0.4026590911259567  0.1776976716219071
  0.6892960748047945  0.0070408235944300  0.7510617997662066
  0.5242453158177586  0.5763805514738705  0.8049108807530214
  0.6789026007767945  0.0040726542184558  0.2464175091812723
  0.0063521937406825  0.3237081305991707  0.0739630709948773
  0.0108756795269074  0.3428476218599836  0.5742594923670695
  0.5093239801494036  0.1761491860662420  0.4276736173938716
  0.4983776172610457  0.8277918509905720  0.5722567316550303
  0.5071348099797566  0.1627253893864829  0.9238747846707761
  0.4964960830900226  0.8215261291802820  0.0715126978147985
  0.9932362193553970  0.6862275474895582  0.4300589726880603
  0.9975922617721337  0.6615349448996800  0.9292476995363560
  0.3565637417079780  0.3004320616222023  0.8586917334523470
  0.1669074744610003  0.2098030887850955  0.1281442740368766
  0.3628602645636888  0.3301819389958022  0.3660042746789379
  0.1524362568077521  0.7883265927437895  0.8688573091608701
  0.9955453335546642  0.6123825083103140  0.0994304386553186
  0.6448699534835506  0.6829119845981211  0.1396691822341918
  0.8316263105234734  0.7864146493996650  0.3716285479574806
  0.1354182334510572  0.8439884100162799  0.3606539314937110
  0.3393096190948723  0.7142386843164588  0.6300191924712679
  0.5002829278937098  0.8716051874314205  0.9022218114446227
  0.6655839837683669  0.2832423758390152  0.8714777783735614
  0.8598411541074740  0.1815511295759390  0.1444592549943610
  0.1692528707840227  0.2253090964712335  0.6346974470994637
  0.0158435092748024  0.4002282745724672  0.4038103655423121
  0.6494107513555892  0.6939577029832699  0.6365395578573277
  0.5022473785354342  0.1109390881123470  0.0941609142156025
  0.6678849925992052  0.2864867548440827  0.3662096601578996
  0.8577501175022917  0.2030407867640055  0.6301117814590912
  0.0011368667700054  0.6326989515212831  0.5986773942763073
  0.9998442077751571  0.3715861425766127  0.9061931333826206
  0.8423920165173422  0.7793978299205030  0.8653940661700198
  0.5142546956635929  0.1163103947133751  0.5966441008265584
  0.3385458768755603  0.7046592406823532  0.1308239148954321
  0.4923257867759316  0.8897521918511053  0.4020575583839172
