Na Al S                                 
   1.0000000000000000     
    12.1026382039385112    0.0000000000000000    0.0000000000000007
    -0.0000000000000004    7.0938170788834114    0.0000000000000004
     0.0000000000000000    0.0000000000000000   21.6510149562332330
   Na   Al   S 
    39     8    32
Direct
  0.3478219724386022  0.9079643529304207  0.4986470631935518
  0.6455545658526418  0.4063037210402030  0.9987901418107441
  0.1608637399231085  0.0944526950039162  0.9950561797553092
  0.1521415548167084  0.4078554291857870  0.4985919657475719
  0.3394027192837683  0.5949010323220421  0.9952223604440960
  0.6520155836140660  0.0908545063041046  0.5012274862566457
  0.8479664117476204  0.5908190177905865  0.5012207336223113
  0.8539836310978330  0.9060072780841537  0.9987242486765879
  0.2878081137984054  0.5508526656665680  0.3626695827314776
  0.7139261976555389  0.0490398660080373  0.1357680753011863
  0.2500109446995964  0.6982018711080471  0.8652872419504973
  0.2121667132028193  0.0507497801990837  0.3626360124161465
  0.7124941437841770  0.4484939905897605  0.6380751932880742
  0.7875474307641284  0.9482610292753719  0.6380062100498378
  0.7858922071428296  0.5489345170084761  0.1357489553106106
  0.5526636185505467  0.5612219611837190  0.4348791528732221
  0.4491154510999564  0.0591564491355214  0.0669089132984482
  0.9522719732094913  0.4397205893093101  0.9344252040848033
  0.9474034156397622  0.0610611473924152  0.4348311296334302
  0.5476571273525650  0.9400010226326359  0.9344297100318997
  0.4464008255267800  0.4377019138831528  0.5660125831668736
  0.0537267107603157  0.9373850144020963  0.5659841751142309
  0.0506619001396516  0.5589970208299633  0.0667488105896865
  0.5836885500872597  0.3847220888524987  0.2530847562406535
  0.4155535375494921  0.8835786749912842  0.2468478600533075
  0.9180670719932138  0.6165493751968825  0.7528272587764064
  0.9161832556109317  0.8843544251810656  0.2529594966741584
  0.5822545209138354  0.1173826339129889  0.7527711082886839
  0.4045235337462927  0.6345905402505991  0.7516259661530782
  0.0950168204258404  0.1335862863420161  0.7515007349424963
  0.0842961344060882  0.3834166286008838  0.2467693709193028
  0.8360955837611499  0.1039350777756880  0.8307183535691678
  0.1638158827314697  0.6078878646554173  0.6689582821477487
  0.6639900981435929  0.8929919810896649  0.3304108119777567
  0.6640576673780245  0.6045403073052142  0.8307591480610981
  0.8360521614647567  0.3928052197909437  0.3303577843541703
  0.1635832385647049  0.8910725514795672  0.1683386216979414
  0.3361721328870502  0.3912482679426290  0.1684427204126919
  0.3362179881904126  0.1082902284740044  0.6690806345629667
  0.0448843488118484  0.8322923801384050  0.8741013611116131
  0.9597854043771505  0.3316852525732159  0.6258467743082790
  0.4590395473341431  0.1666394777472036  0.3742226388177485
  0.4555725476687655  0.3323680433756948  0.8741568761896303
  0.0409546696262950  0.6665350927191014  0.3741552799493633
  0.9590851177953255  0.1656555299244857  0.1248261390464336
  0.5408093589280227  0.6657498912076392  0.1249675227893334
  0.5401777272324182  0.8319204414549404  0.6258629985111881
  0.3758267430353897  0.2133308259588560  0.9608238195151912
  0.6307125248246592  0.7068110337939828  0.5427368609281444
  0.1305237572005495  0.7915990674200586  0.4575513028250526
  0.1245492813915021  0.7130713290196269  0.9607319685062947
  0.3694957203627922  0.2917224875267905  0.4576198075743818
  0.6314165028962293  0.7900102854026443  0.0418413600534109
  0.8682099178406801  0.2899148077081435  0.0417871017845073
  0.8693040908401457  0.2066748645464926  0.5426978072234832
  0.4475720256834066  0.8486811033986541  0.3768120813498470
  0.5540875718900011  0.3481335961991832  0.1234626049162273
  0.0506758514207135  0.1480848513800623  0.8784979806366096
  0.0524631418915362  0.3485659384582007  0.3767688352468355
  0.4495979889013171  0.6482758365001473  0.8785409644806847
  0.5531570963597048  0.1499480422471322  0.6229052163109046
  0.9468401953600818  0.6497272585304330  0.6229020717793503
  0.9456760224175369  0.8480428491297118  0.1233327304281886
  0.1407538136696687  0.2461405288972571  0.6233457312933552
  0.8630879174090040  0.7400181011637414  0.8740975713456862
  0.3601249561184474  0.7527520618554604  0.1235237397180029
  0.3591902064822392  0.7464597114684040  0.6233278843867325
  0.1397708443712915  0.2527539500054630  0.1233338049063590
  0.8601285664203289  0.7547433914509369  0.3760599737611443
  0.6398664293370544  0.2549039206333674  0.3761003722742799
  0.6372814312637232  0.2402590629543724  0.8740656873580051
  0.6307187323671997  0.7580188822774474  0.2128451367757975
  0.3690393378060648  0.2574527842417638  0.2863680592577822
  0.8719355202134338  0.2418933757264909  0.7139549744784048
  0.8692985071416572  0.2578872826833276  0.2127701496043457
  0.6279846881967117  0.7422786985031848  0.7139766640204570
  0.3671572525915892  0.2478824128294477  0.7858946475935795
  0.1332475753281130  0.7475109113043246  0.7858401613290908
  0.1309319372382447  0.7573571094527196  0.2862952309848055

             NaN             NaN             NaN
             NaN             NaN             NaN
             NaN             NaN             NaN
             NaN             NaN             NaN
             NaN             NaN             NaN
             NaN             NaN             NaN
             NaN             NaN             NaN
             NaN             NaN             NaN
             NaN             NaN             NaN
             NaN             NaN             NaN
             NaN             NaN             NaN
             NaN             NaN             NaN
             NaN             NaN             NaN
             NaN             NaN             NaN
             NaN             NaN             NaN
             NaN             NaN             NaN
             NaN             NaN             NaN
             NaN             NaN             NaN
             NaN             NaN             NaN
             NaN             NaN             NaN
             NaN             NaN             NaN
             NaN             NaN             NaN
             NaN             NaN             NaN
             NaN             NaN             NaN
             NaN             NaN             NaN
             NaN             NaN             NaN
             NaN             NaN             NaN
             NaN             NaN             NaN
             NaN             NaN             NaN
             NaN             NaN             NaN
             NaN             NaN             NaN
             NaN             NaN             NaN
             NaN             NaN             NaN
             NaN             NaN             NaN
             NaN             NaN             NaN
             NaN             NaN             NaN
             NaN             NaN             NaN
             NaN             NaN             NaN
             NaN             NaN             NaN
             NaN             NaN             NaN
             NaN             NaN             NaN
             NaN             NaN             NaN
             NaN             NaN             NaN
             NaN             NaN             NaN
             NaN             NaN             NaN
             NaN             NaN             NaN
             NaN             NaN             NaN
             NaN             NaN             NaN
             NaN             NaN             NaN
             NaN             NaN             NaN
             NaN             NaN             NaN
             NaN             NaN             NaN
             NaN             NaN             NaN
             NaN             NaN             NaN
             NaN             NaN             NaN
             NaN             NaN             NaN
             NaN             NaN             NaN
             NaN             NaN             NaN
             NaN             NaN             NaN
             NaN             NaN             NaN
             NaN             NaN             NaN
             NaN             NaN             NaN
             NaN             NaN             NaN
             NaN             NaN             NaN
             NaN             NaN             NaN
             NaN             NaN             NaN
             NaN             NaN             NaN
             NaN             NaN             NaN
             NaN             NaN             NaN
             NaN             NaN             NaN
             NaN             NaN             NaN
             NaN             NaN             NaN
             NaN             NaN             NaN
             NaN             NaN             NaN
             NaN             NaN             NaN
             NaN             NaN             NaN
             NaN             NaN             NaN
             NaN             NaN             NaN
             NaN             NaN             NaN
