Na Al S 
 1.0000000000000000
    12.1026382039385112    0.0000000000000000    0.0000000000000007
    -0.0000000000000004    7.0938170788834114    0.0000000000000004
     0.0000000000000000    0.0000000000000000   21.6510149562332330
 Na  Al  S  
  39   8  32
Direct
  0.3478219724386052  0.9079643529304198  0.4986470631935522
  0.6455545658526445  0.4063037210402021 -0.0012098581892584
  0.1608637399231096  0.0944526950039134  0.9950561797553122
  0.1521415548167092  0.4078554291857864  0.4985919657475692
  0.3394027192837656  0.5949010323220445  0.9952223604440970
  0.6520155836140666  0.0908545063041026  0.5012274862566446
  0.8479664117476210  0.5908190177905843  0.5012207336223136
  0.8539836310978347  0.9060072780841537 -0.0012757513234092
  0.2878081137984043  0.5508526656665665  0.3626695827314784
  0.7139261976555410  0.0490398660080371  0.1357680753011839
  0.2500109446995946  0.6982018711080489  0.8652872419504988
  0.2121667132028170  0.0507497801990837  0.3626360124161472
  0.7124941437841795  0.4484939905897588  0.6380751932880724
  0.7875474307641257  0.9482610292753736  0.6380062100498392
  0.7858922071428309  0.5489345170084791  0.1357489553106115
  0.5526636185505446  0.5612219611837214  0.4348791528732256
  0.4491154510999569  0.0591564491355228  0.0669089132984465
  0.9522719732094922  0.4397205893093070  0.9344252040848035
  0.9474034156397647  0.0610611473924181  0.4348311296334310
  0.5476571273525662  0.9400010226326329  0.9344297100318990
  0.4464008255267815  0.4377019138831503  0.5660125831668734
  0.0537267107603142  0.9373850144020933  0.5659841751142343
  0.0506619001396526  0.5589970208299664  0.0667488105896839
  0.5836885500872586  0.3847220888524972  0.2530847562406537
  0.4155535375494903  0.8835786749912861  0.2468478600533062
  0.9180670719932115  0.6165493751968858  0.7528272587764097
  0.9161832556109331  0.8843544251810658  0.2529594966741592
  0.5822545209138321  0.1173826339129904  0.7527711082886832
  0.4045235337462893  0.6345905402506016  0.7516259661530802
  0.0950168204258370  0.1335862863420158  0.7515007349424927
  0.0842961344060897  0.3834166286008834  0.2467693709193024
  0.8360955837611469  0.1039350777756882  0.8307183535691697
  0.1638158827314684  0.6078878646554140  0.6689582821477470
  0.6639900981435953  0.8929919810896625  0.3304108119777542
  0.6640576673780267  0.6045403073052127  0.8307591480610987
  0.8360521614647536  0.3928052197909431  0.3303577843541701
  0.1635832385647046  0.8910725514795647  0.1683386216979411
  0.3361721328870525  0.3912482679426305  0.1684427204126947
  0.3362179881904108  0.1082902284740028  0.6690806345629668
  0.0448843488118508  0.8322923801384051  0.8741013611116164
  0.9597854043771527  0.3316852525732136  0.6258467743082803
  0.4590395473341408  0.1666394777472054  0.3742226388177496
  0.4555725476687669  0.3323680433756979  0.8741568761896317
  0.0409546696262974  0.6665350927191039  0.3741552799493636
  0.9590851177953230  0.1656555299244823  0.1248261390464346
  0.5408093589280261  0.6657498912076398  0.1249675227893331
  0.5401777272324205  0.8319204414549403  0.6258629985111908
  0.3758267430353870  0.2133308259588538  0.9608238195151940
  0.6307125248246587  0.7068110337939827  0.5427368609281468
  0.1305237572005475  0.7915990674200560  0.4575513028250554
  0.1245492813915049  0.7130713290196284  0.9607319685062967
  0.3694957203627888  0.2917224875267909  0.4576198075743800
  0.6314165028962296  0.7900102854026437  0.0418413600534116
  0.8682099178406831  0.2899148077081463  0.0417871017845070
  0.8693040908401450  0.2066748645464930  0.5426978072234814
  0.4475720256834085  0.8486811033986510  0.3768120813498435
  0.5540875718899979  0.3481335961991833  0.1234626049162246
  0.0506758514207157  0.1480848513800624  0.8784979806366104
  0.0524631418915374  0.3485659384581986  0.3767688352468370
  0.4495979889013172  0.6482758365001494  0.8785409644806873
  0.5531570963597053  0.1499480422471334  0.6229052163109026
  0.9468401953600785  0.6497272585304316  0.6229020717793510
  0.9456760224175398  0.8480428491297151  0.1233327304281870
  0.1407538136696700  0.2461405288972539  0.6233457312933588
  0.8630879174090024  0.7400181011637396  0.8740975713456867
  0.3601249561184462  0.7527520618554611  0.1235237397180055
  0.3591902064822425  0.7464597114684075  0.6233278843867306
  0.1397708443712884  0.2527539500054611  0.1233338049063580
  0.8601285664203320  0.7547433914509403  0.3760599737611438
  0.6398664293370568  0.2549039206333665  0.3761003722742804
  0.6372814312637212  0.2402590629543724  0.8740656873580024
  0.6307187323671984  0.7580188822774481  0.2128451367757981
  0.3690393378060663  0.2574527842417616  0.2863680592577856
  0.8719355202134351  0.2418933757264893  0.7139549744784063
  0.8692985071416577  0.2578872826833269  0.2127701496043423
  0.6279846881967101  0.7422786985031813  0.7139766640204572
  0.3671572525915868  0.2478824128294461  0.7858946475935820
  0.1332475753281161  0.7475109113043252  0.7858401613290923
  0.1309319372382423  0.7573571094527162  0.2862952309848031
Cartesian
  0.0000000000000000  0.0000000000000000  0.0000000000000000
  0.0000000000000000  0.0000000000000000  0.0000000000000000
  0.0000000000000000  0.0000000000000000  0.0000000000000000
  0.0000000000000000  0.0000000000000000  0.0000000000000000
  0.0000000000000000  0.0000000000000000  0.0000000000000000
  0.0000000000000000  0.0000000000000000  0.0000000000000000
  0.0000000000000000  0.0000000000000000  0.0000000000000000
  0.0000000000000000  0.0000000000000000  0.0000000000000000
  0.0000000000000000  0.0000000000000000  0.0000000000000000
  0.0000000000000000  0.0000000000000000  0.0000000000000000
  0.0000000000000000  0.0000000000000000  0.0000000000000000
  0.0000000000000000  0.0000000000000000  0.0000000000000000
  0.0000000000000000  0.0000000000000000  0.0000000000000000
  0.0000000000000000  0.0000000000000000  0.0000000000000000
  0.0000000000000000  0.0000000000000000  0.0000000000000000
  0.0000000000000000  0.0000000000000000  0.0000000000000000
  0.0000000000000000  0.0000000000000000  0.0000000000000000
  0.0000000000000000  0.0000000000000000  0.0000000000000000
  0.0000000000000000  0.0000000000000000  0.0000000000000000
  0.0000000000000000  0.0000000000000000  0.0000000000000000
  0.0000000000000000  0.0000000000000000  0.0000000000000000
  0.0000000000000000  0.0000000000000000  0.0000000000000000
  0.0000000000000000  0.0000000000000000  0.0000000000000000
  0.0000000000000000  0.0000000000000000  0.0000000000000000
  0.0000000000000000  0.0000000000000000  0.0000000000000000
  0.0000000000000000  0.0000000000000000  0.0000000000000000
  0.0000000000000000  0.0000000000000000  0.0000000000000000
  0.0000000000000000  0.0000000000000000  0.0000000000000000
  0.0000000000000000  0.0000000000000000  0.0000000000000000
  0.0000000000000000  0.0000000000000000  0.0000000000000000
  0.0000000000000000  0.0000000000000000  0.0000000000000000
  0.0000000000000000  0.0000000000000000  0.0000000000000000
  0.0000000000000000  0.0000000000000000  0.0000000000000000
  0.0000000000000000  0.0000000000000000  0.0000000000000000
  0.0000000000000000  0.0000000000000000  0.0000000000000000
  0.0000000000000000  0.0000000000000000  0.0000000000000000
  0.0000000000000000  0.0000000000000000  0.0000000000000000
  0.0000000000000000  0.0000000000000000  0.0000000000000000
  0.0000000000000000  0.0000000000000000  0.0000000000000000
  0.0000000000000000  0.0000000000000000  0.0000000000000000
  0.0000000000000000  0.0000000000000000  0.0000000000000000
  0.0000000000000000  0.0000000000000000  0.0000000000000000
  0.0000000000000000  0.0000000000000000  0.0000000000000000
  0.0000000000000000  0.0000000000000000  0.0000000000000000
  0.0000000000000000  0.0000000000000000  0.0000000000000000
  0.0000000000000000  0.0000000000000000  0.0000000000000000
  0.0000000000000000  0.0000000000000000  0.0000000000000000
  0.0000000000000000  0.0000000000000000  0.0000000000000000
  0.0000000000000000  0.0000000000000000  0.0000000000000000
  0.0000000000000000  0.0000000000000000  0.0000000000000000
  0.0000000000000000  0.0000000000000000  0.0000000000000000
  0.0000000000000000  0.0000000000000000  0.0000000000000000
  0.0000000000000000  0.0000000000000000  0.0000000000000000
  0.0000000000000000  0.0000000000000000  0.0000000000000000
  0.0000000000000000  0.0000000000000000  0.0000000000000000
  0.0000000000000000  0.0000000000000000  0.0000000000000000
  0.0000000000000000  0.0000000000000000  0.0000000000000000
  0.0000000000000000  0.0000000000000000  0.0000000000000000
  0.0000000000000000  0.0000000000000000  0.0000000000000000
  0.0000000000000000  0.0000000000000000  0.0000000000000000
  0.0000000000000000  0.0000000000000000  0.0000000000000000
  0.0000000000000000  0.0000000000000000  0.0000000000000000
  0.0000000000000000  0.0000000000000000  0.0000000000000000
  0.0000000000000000  0.0000000000000000  0.0000000000000000
  0.0000000000000000  0.0000000000000000  0.0000000000000000
  0.0000000000000000  0.0000000000000000  0.0000000000000000
  0.0000000000000000  0.0000000000000000  0.0000000000000000
  0.0000000000000000  0.0000000000000000  0.0000000000000000
  0.0000000000000000  0.0000000000000000  0.0000000000000000
  0.0000000000000000  0.0000000000000000  0.0000000000000000
  0.0000000000000000  0.0000000000000000  0.0000000000000000
  0.0000000000000000  0.0000000000000000  0.0000000000000000
  0.0000000000000000  0.0000000000000000  0.0000000000000000
  0.0000000000000000  0.0000000000000000  0.0000000000000000
  0.0000000000000000  0.0000000000000000  0.0000000000000000
  0.0000000000000000  0.0000000000000000  0.0000000000000000
  0.0000000000000000  0.0000000000000000  0.0000000000000000
  0.0000000000000000  0.0000000000000000  0.0000000000000000
  0.0000000000000000  0.0000000000000000  0.0000000000000000
