Na24 Al8 S24                            
   1.0000000000000000     
    12.1828203277415312   -0.0000000000000000    0.0000000000000007
    -0.0000000000000010   15.1349386410830835    2.3941278804312205
     0.0000000000000000    0.0113082934473333   13.7304524371335805
   Na   Al   S 
    48    16    48
Direct
  0.9554897960617007  0.0345733045417868  0.8115837240568385
  0.7789133440112840  0.4969653829057988  0.0263289986352105
  0.8357337953889598  0.2759388783864839  0.7668143568137107
  0.7383903162845171  0.4917375295818652  0.5205091090544968
  0.8625871515454385  0.0824366155553563  0.3624331693315415
  0.2267980600091184  0.2974610147244017  0.4359089738221440
  0.8199036246657121  0.2896759543276045  0.2340449275810396
  0.2815708835035561  0.0434807134631119  0.4543769807158639
  0.7573013042685723  0.2545464247195752  0.0224043264822868
  0.4047341661886385  0.1805720217986613  0.6422375233791583
  0.2818817056943173  0.2351732597599449  0.9954185078226024
  0.1471081740715336 -0.0304434588330097  1.0007940141455491
  0.7143237182299759  0.2254843608229933  0.5457581291975482
  0.1599113639267016  0.2099889953004450  0.2436685414129264
  0.0463055128707458  0.4741060021746728  0.1808572777596185
  0.5567580603329251  0.3059130102234164  0.3266633702890953
  0.3087040293594897  0.4940827199267273  0.7330084007044779
  0.0674160739237789  0.4554746742351373  0.6316176934315442
  0.3030376017702227  0.4850373315168963  0.2341710538927715
  0.1832779774934860  0.2752819657413343  0.7452994936181997
  0.4544474952880877  0.2075564603103051  0.1790927618069130
  0.6855985334089068  0.0617666052196735  0.7338611130351841
  0.5706733151674221  0.2996924075383076  0.8222772469701406
  0.6717372304215068  0.0050369411220863  0.2478600230708924
  0.9649229406407137  0.5443358069801894  0.8240721774313592
  0.7254858600876366  0.9955196891592745 -0.0177175222913353
  0.8161605256579086  0.7257797579037540  0.7809200772412641
  0.7716322033589095  0.8955828303939621  0.5560533135422934
  0.9526441975681238  0.5493831159736234  0.3604373990584235
  0.2747832238646293  0.7646919286702490  0.4751048148486294
  0.8146921612551223  0.7566019533666447  0.2501568709324777
  0.2692060514886346  0.5410051658304924  0.4863297134904192
  0.7375299204735928  0.7241963291348639  0.0309998595582631
  0.4212112919563458  0.7066941567461106  0.6721914713639398
  0.2475705471834146  0.7439168034246340  0.9701117245503490
  0.2250024022771784  0.5095813456153280  0.9699727762044044
  0.7490555561251113  0.6897105137649800  0.5380670063656838
  0.1775019186024691  0.7526075893765551  0.2172040742968967
 -0.0221827772925919  0.9648072353555454  0.2192549989754348
  0.5580406396644517  0.8109939573991894  0.3589326788035253
  0.3089358708791777  0.9804526885095913  0.7890077163356791
  0.0880153245059004  0.9481752737156127  0.6152005966261900
  0.3017969139877277  0.9818798579851187  0.2456157543354259
  0.1665204827031303  0.7529776597806104  0.7349236851236726
  0.5101040684196877  0.7116619857280402  0.1815591841646284
  0.6853537622572098  0.5099728300529484  0.7543887688280337
  0.5656442262271346  0.8048048246199185  0.8456232966274536
  0.6832223206335325  0.4952552609043215  0.2630990101016176
  0.0000330912280533  0.1607212300054726  0.0683388221378785
  0.0380145711342178  0.1419972637142718  0.5656960087955161
  0.5271923288370847  0.0891876473389960  0.4432072510498458
  0.4891414305826571  0.4221672933124769  0.5792591800705078
  0.5011606151957456  0.0843556171525953  0.9297578083365889
  0.4893368805790489  0.4116830103907517  0.0697958523642605
  0.9711355730615937  0.3294100721725395  0.4399857938458225
  1.0001112632888474  0.3398179824945767  0.9458378685101063
  0.0157483731721075  0.6657474533370229  0.0652208905367794
  0.0280528438663066  0.6665681604263517  0.5625976747755843
  0.5235875755302659  0.5847754654125684  0.4220012045743273
  0.4874935884343426  0.9071974886284141  0.5816147318402543
  0.5119862834370011  0.5741520763895187  0.9344455371195496
  0.4807933179950905  0.9179605955441664  0.0660222943244937
  1.0045463839870321  0.8467583646390004  0.4374939166708102
  0.9619763343105769  0.8340925160976602  0.9181524157499701
  0.3808148507507511  0.1612874970458783  0.8333424670881966
  0.1529154343597665  0.0935949089538054  0.1185754751033190
  0.3809362446110287  0.1821988276905873  0.3834563446947587
  0.1472764038787313  0.3992369419990424  0.8646237712367447
  0.0099481813660543  0.3010263493212847  0.1115603381452793
  0.6508168517356668  0.3558807171525619  0.1416553044198916
  0.8088448242950816  0.3731379539963557  0.3887052756776290
  0.1188626187347875  0.4393633456468859  0.3631179484491204
  0.3234571406433919  0.3773013862640800  0.6253907767908118
  0.4795315873703829  0.4182013659747305  0.9075517392640349
  0.6648736860644271  0.1513459301103601  0.8819023990875000
  0.8541677054652468  0.0948782819501777  0.1490010110772851
  0.1976683877671625  0.0928048327219535  0.6170256218707125
  0.0282970708374293  0.1963641133147440  0.4039067126283672
  0.6456924410273713  0.3635009732475337  0.6399417437090134
  0.4742220517499828  0.0626367597480078  0.1080092173286308
  0.6739932189200686  0.1469436473575400  0.3635334966576425
  0.8876282623081835  0.0613415075211961  0.6101591176113805
  0.9773005382658382  0.2787657264650784  0.5942503488942406
  0.9971353220778982  0.2027674374596835  0.9010460369101375
  0.8363278362878357  0.4087200960245128  0.8720714591839643
  0.5447886129115459  0.0394373763503021  0.6117359030736556
  0.3372066280675534  0.3421090637287134  0.1276991174517279
  0.4885939421661650  0.4394145226194585  0.4031011228787172
  0.3680094312652011  0.6577101433439155  0.8691171268530862
  0.1912005255273328  0.6130646671030592  0.1031071064112437
  0.3943327420965507  0.6853773869094086  0.3518641958827463
  0.1010824868381635  0.9059116066854920  0.8425837571561532
 -0.0127552050237763  0.8023357788825981  0.0866121621971907
  0.6340176093318275  0.8412806975759510  0.1492908283306660
  0.8474981500525549  0.8890586478989901  0.3691878576678603
  0.1475049674622966  0.9298289115898775  0.3768181425834675
  0.3061254337104404  0.8752594907816301  0.6389500256376783
  0.5025746187886826  0.9472132159008351  0.9042925382850092
  0.6662353984493213  0.6279545048582728  0.8787218862097060
  0.8958425735793285  0.5831082933119307  0.1601544658515008
  0.1917421562510438  0.6307490505334495  0.6280086586134767
  0.0556929435613866  0.7135382916463475  0.3974981189036976
  0.6086234437240325  0.7924483955987178  0.6306920761386559
  0.4968117661130584  0.5535039491239733  0.1018831028139408
  0.6940567487957475  0.6327256846655304  0.3637323211820749
  0.8927890109129231  0.5722957297137387  0.6062308955081610
  0.9611339106677315  0.7940205617282391  0.6095085221241953
  0.9931459582809686  0.6944656211960228  0.8947855421067133
  0.7977598803375527  0.8878671847262666  0.8730059635068448
  0.5285827730375182  0.5776692051533027  0.5959759462700192
  0.3175064367507999  0.8657528839558293  0.1041267156334839
  0.4731648243395529  0.9556012702242394  0.4044654559086114

 -0.53123210E-02 -0.44447905E-02 -0.89149583E-02
 -0.59466510E-03  0.84033831E-03  0.51935849E-02
  0.18799543E-02  0.48680578E-03 -0.17042853E-02
  0.69731674E-03  0.48041075E-02 -0.74948696E-03
 -0.68160438E-02  0.53758263E-02  0.55303119E-02
  0.18538780E-02 -0.62887137E-03 -0.58535061E-02
  0.29693734E-02 -0.39438798E-02 -0.70363311E-02
 -0.54135946E-02 -0.12785494E-02  0.62473195E-02
  0.27180004E-02 -0.46696378E-03  0.70305434E-02
  0.32159562E-03  0.79062011E-02 -0.58213197E-02
  0.81125455E-02 -0.80858935E-02  0.41542546E-02
  0.66952607E-02 -0.42782092E-03 -0.39886325E-02
  0.38080167E-02  0.24870519E-02  0.11376889E-02
  0.72997306E-03  0.48600908E-02 -0.17065167E-02
  0.61875869E-02 -0.19510729E-02  0.25043409E-02
 -0.97872893E-03  0.44047430E-02 -0.23146505E-02
  0.14422579E-02 -0.75735751E-02  0.46206007E-02
  0.33708999E-02  0.34692142E-02 -0.39562690E-02
  0.32667918E-02  0.35949601E-02  0.33907074E-02
 -0.34996105E-02  0.36163928E-02  0.92835555E-03
  0.58035730E-02 -0.80243275E-02  0.12278404E-02
 -0.14077020E-02  0.54841101E-02 -0.81026519E-02
  0.25381334E-02  0.58282012E-02  0.86646191E-02
 -0.40430769E-02 -0.72664303E-02  0.39375151E-02
  0.65474205E-03  0.32556620E-02 -0.50502281E-02
 -0.39147433E-02 -0.19179269E-02  0.58388912E-02
  0.14644278E-02 -0.11364003E-02  0.70547382E-03
 -0.67638009E-02  0.39498651E-02  0.63447830E-02
 -0.47549580E-02 -0.22778635E-02  0.39614315E-03
  0.73607086E-02 -0.40571575E-02  0.23063534E-02
 -0.45304388E-02  0.22333049E-02  0.33536390E-02
  0.34253718E-05 -0.45840368E-02  0.41550381E-02
 -0.46479466E-02  0.31723125E-02  0.30892580E-02
 -0.33217899E-02 -0.91481425E-03 -0.45037585E-02
 -0.29328283E-02 -0.24590115E-02 -0.41027747E-02
  0.18702126E-02  0.77595120E-02  0.11429857E-02
 -0.18563429E-03  0.29210338E-02  0.51969955E-02
  0.31677673E-02  0.28495129E-02  0.12099524E-02
  0.11507538E-03 -0.63964778E-02 -0.22339421E-02
 -0.37648411E-03 -0.16212730E-02  0.22968524E-02
  0.43652785E-02 -0.73416005E-03 -0.19175309E-03
  0.49336061E-02  0.21827179E-02  0.16231762E-02
 -0.36304243E-02 -0.35751224E-02 -0.63259534E-02
  0.71509286E-03  0.39947669E-03 -0.11292363E-02
 -0.12612098E-01  0.66638908E-02  0.41217440E-02
  0.38732635E-02  0.10471679E-02  0.91321049E-02
  0.39787494E-02 -0.39186934E-02 -0.75578595E-02
 -0.37595306E-02  0.54922649E-02  0.40725097E-02
 -0.28395118E-02 -0.54497050E-02 -0.20140348E-02
 -0.52343162E-02 -0.96079853E-03  0.68320535E-02
  0.67511988E-02  0.72189578E-02  0.30504578E-02
 -0.44845612E-02  0.47787036E-02  0.16365755E-02
  0.21951953E-03 -0.70763024E-03  0.76753503E-03
 -0.39875998E-02 -0.40748652E-02  0.35617814E-02
 -0.44978436E-02 -0.34223001E-02 -0.66798549E-02
 -0.68398778E-02  0.64853679E-02 -0.74584197E-02
 -0.41108329E-02 -0.80489326E-02  0.65133767E-02
  0.16137975E-02  0.77512480E-02 -0.19641483E-02
  0.63923197E-02 -0.15106814E-03  0.73964086E-02
  0.17461971E-02  0.31622818E-02  0.28619377E-03
 -0.88323308E-03  0.89297357E-04 -0.49593213E-03
 -0.36560284E-02  0.28623378E-02  0.32556444E-02
  0.24152945E-02 -0.18545487E-02 -0.74993591E-03
  0.33565435E-02 -0.61556233E-03  0.28673096E-02
 -0.27476764E-02 -0.56581827E-02 -0.69070485E-03
 -0.44735290E-02  0.70391931E-02 -0.18471937E-02
  0.46848833E-02  0.68852424E-03  0.12914332E-02
 -0.31431911E-02 -0.26776149E-02 -0.64330786E-02
 -0.36728331E-02  0.67446642E-02  0.64515249E-02
 -0.23149238E-02  0.60199128E-03 -0.50132559E-02
  0.53810573E-02  0.35256711E-02  0.84652333E-03
 -0.34828999E-02  0.14863503E-02 -0.28959100E-02
 -0.39532653E-02 -0.64363651E-02  0.45329124E-02
 -0.46064322E-02 -0.29035776E-02  0.30493832E-03
  0.37062137E-02 -0.79631146E-03 -0.55869167E-03
  0.30786582E-02 -0.16902931E-02 -0.18797868E-02
  0.63410753E-02  0.23823748E-02 -0.40663601E-02
  0.18943754E-02 -0.18904769E-02 -0.81941881E-03
 -0.16540600E-02 -0.18541169E-02  0.10079025E-02
  0.18016869E-02  0.10327319E-02 -0.82957136E-04
  0.16463558E-02 -0.38633552E-02  0.50558896E-02
 -0.49192636E-03  0.55040875E-03 -0.37982679E-03
 -0.13842655E-02 -0.48128389E-02 -0.17872468E-02
  0.11210418E-01 -0.84555048E-03  0.22895260E-02
 -0.36823648E-02 -0.63934315E-02 -0.60853820E-02
 -0.36093484E-02 -0.26384142E-02  0.40883305E-02
 -0.32357032E-02  0.72990575E-03  0.10105895E-02
 -0.55993508E-02  0.32050804E-02  0.58768240E-02
  0.25389810E-02 -0.13872117E-02  0.37293036E-02
  0.70346164E-02  0.45786043E-02 -0.12643182E-02
 -0.28987382E-02 -0.40287319E-02 -0.30015547E-02
 -0.27298369E-02  0.55173639E-02 -0.59260329E-03
 -0.41956013E-02  0.10320473E-02 -0.11839915E-01
 -0.94420810E-03  0.39333771E-02  0.49539635E-02
 -0.20058645E-02 -0.10497319E-02 -0.38366621E-02
 -0.45902872E-03  0.19464608E-02 -0.54318368E-02
  0.24040828E-02 -0.25592657E-03  0.32515699E-02
  0.34230545E-02  0.19029214E-02 -0.25269718E-02
 -0.10300545E-03  0.61150069E-02  0.73173751E-02
  0.70102447E-02  0.47582912E-02  0.49369469E-02
  0.45057446E-02 -0.66734458E-02  0.28630499E-02
  0.50191884E-02 -0.41723996E-04 -0.44478473E-03
  0.75054012E-03 -0.93080450E-03 -0.82743746E-02
  0.34034100E-02 -0.90866244E-02 -0.43640630E-02
 -0.33062477E-03 -0.15153968E-02 -0.70064264E-02
  0.36190901E-02 -0.44395840E-02  0.58609801E-02
  0.26699394E-02  0.34710027E-02 -0.34116777E-02
 -0.13656342E-02 -0.20130041E-03  0.20854835E-03
  0.42035838E-02 -0.29572141E-02  0.30579276E-02
 -0.61314080E-02 -0.32678299E-02 -0.62265695E-02
 -0.75908386E-02  0.12206536E-02 -0.86963435E-02
 -0.15803460E-02 -0.25841760E-02 -0.39149519E-02

           1
   2.0000000000000000     
 -0.53195114E+00  0.34215184E-02  0.35158458E-02 -0.53541982E+00
  0.95461770E+00  0.33986843E-01  0.81038742E+00
  0.77881572E+00  0.49707588E+00  0.27066238E-01
  0.83604242E+00  0.27600340E+00  0.76655486E+00
  0.73850479E+00  0.49237253E+00  0.52028921E+00
  0.86146819E+00  0.83146492E-01  0.36311494E+00
  0.22710240E+00  0.29737854E+00  0.43507072E+00
  0.82039109E+00  0.28915549E+00  0.23311076E+00
  0.28068216E+00  0.43311058E-01  0.45531656E+00
  0.75774751E+00  0.25448394E+00  0.23439301E-01
  0.40478696E+00  0.18161755E+00  0.64120728E+00
  0.28321351E+00  0.23410416E+00  0.99621004E+00
  0.14820731E+00  0.96950043E+00  0.22280670E-03
  0.71494886E+00  0.22581293E+00  0.54586656E+00
  0.16003120E+00  0.21063150E+00  0.24330794E+00
  0.47321302E-01  0.47384787E+00  0.18126707E+00
  0.55659739E+00  0.30649540E+00  0.32622467E+00
  0.30894080E+00  0.49308128E+00  0.73385606E+00
  0.67969460E-01  0.45593360E+00  0.63096140E+00
  0.30357390E+00  0.48551208E+00  0.23458217E+00
  0.18270346E+00  0.27575981E+00  0.74535140E+00
  0.45540024E+00  0.20649582E+00  0.17945655E+00
  0.68536744E+00  0.62492277E-01  0.73255433E+00
  0.57108999E+00  0.30046173E+00  0.82340521E+00
  0.67107350E+00  0.40761681E-02  0.24860109E+00
  0.96503043E+00  0.54476663E+00  0.82326143E+00
  0.72484319E+00  0.99526558E+00  0.98317729E+00
  0.81640093E+00  0.72562949E+00  0.78104904E+00
  0.77052182E+00  0.89610416E+00  0.55688660E+00
  0.95186360E+00  0.54908203E+00  0.36054760E+00
  0.27599160E+00  0.76415548E+00  0.47553430E+00
  0.81394842E+00  0.75689675E+00  0.25059397E+00
  0.26920661E+00  0.54039888E+00  0.48704066E+00
  0.73676689E+00  0.72461525E+00  0.31376800E-01
  0.42066597E+00  0.70657374E+00  0.67155644E+00
  0.24708908E+00  0.74359226E+00  0.96957070E+00
  0.22530943E+00  0.51060673E+00  0.96996047E+00
  0.74902508E+00  0.69009600E+00  0.53875679E+00
  0.17802196E+00  0.75298405E+00  0.21731468E+00
  0.97783611E+00  0.96396211E+00  0.21907696E+00
  0.55797883E+00  0.81077944E+00  0.35930465E+00
  0.30965250E+00  0.98035568E+00  0.78899670E+00
  0.88825253E-01  0.94846357E+00  0.61538676E+00
  0.30120092E+00  0.98140805E+00  0.24477657E+00
  0.16663788E+00  0.75303058E+00  0.73474997E+00
  0.50803360E+00  0.71254225E+00  0.18200608E+00
  0.68598962E+00  0.51011023E+00  0.75569501E+00
  0.56629740E+00  0.80428775E+00  0.84461257E+00
  0.68260514E+00  0.49598069E+00  0.26356573E+00
  0.99956694E+00  0.16000121E+00  0.68171002E-01
  0.37155276E-01  0.14186954E+00  0.56671345E+00
  0.52830064E+00  0.90141386E-01  0.44348529E+00
  0.48840522E+00  0.42279868E+00  0.57938747E+00
  0.50119665E+00  0.84262012E-01  0.92988593E+00
  0.48868225E+00  0.41114408E+00  0.70408638E-01
  0.97039718E+00  0.32895850E+00  0.43909153E+00
  0.99898839E+00  0.34067591E+00  0.94460187E+00
  0.15073516E-01  0.66468298E+00  0.66355247E-01
  0.28317774E-01  0.66759279E+00  0.56213291E+00
  0.52463697E+00  0.58475469E+00  0.42308220E+00
  0.48778025E+00  0.90761539E+00  0.58158355E+00
  0.51184129E+00  0.57416393E+00  0.93437123E+00
  0.48019312E+00  0.91833853E+00  0.66430617E-01
  0.49428923E-02  0.84651335E+00  0.43742740E+00
  0.96252736E+00  0.83401085E+00  0.91858431E+00
  0.38036378E+00  0.16053978E+00  0.83337224E+00
  0.15218103E+00  0.94525422E-01  0.11814416E+00
  0.38170534E+00  0.18228968E+00  0.38362861E+00
  0.14676040E+00  0.39888376E+00  0.86374830E+00
  0.93452285E-02  0.30191703E+00  0.11234477E+00
  0.65043682E+00  0.35596082E+00  0.14091110E+00
  0.80972821E+00  0.37360382E+00  0.38874735E+00
  0.11829085E+00  0.43956010E+00  0.36266182E+00
  0.32280815E+00  0.37645025E+00  0.62619946E+00
  0.47877537E+00  0.41781759E+00  0.90766307E+00
  0.66548212E+00  0.15124075E+00  0.88183936E+00
  0.85467312E+00  0.94655094E-01  0.14876611E+00
  0.19870937E+00  0.93120134E-01  0.61637833E+00
  0.28608062E-01  0.19611435E+00  0.40383090E+00
  0.64542090E+00  0.36325582E+00  0.64013130E+00
  0.47451783E+00  0.62773256E-01  0.10797333E+00
  0.67426349E+00  0.14643251E+00  0.36435907E+00
  0.88754750E+00  0.61414292E-01  0.61009110E+00
  0.97707329E+00  0.27812985E+00  0.59410089E+00
  0.99897569E+00  0.20265544E+00  0.90139906E+00
  0.83572332E+00  0.40787579E+00  0.87133227E+00
  0.54419608E+00  0.39088234E-01  0.61239229E+00
  0.33667544E+00  0.34220542E+00  0.12782952E+00
  0.48767472E+00  0.43983747E+00  0.40388340E+00
  0.36842624E+00  0.65752640E+00  0.86969238E+00
  0.19235537E+00  0.61366992E+00  0.10281741E+00
  0.39385687E+00  0.68484527E+00  0.35151977E+00
  0.10063434E+00  0.90664086E+00  0.84237028E+00
  0.98655602E+00  0.80247346E+00  0.84863533E-01
  0.63386260E+00  0.84180000E+00  0.14992188E+00
  0.84716886E+00  0.88892033E+00  0.36865312E+00
  0.14742961E+00  0.93008675E+00  0.37598197E+00
  0.30652010E+00  0.87522531E+00  0.63942961E+00
  0.50313657E+00  0.94746498E+00  0.90388056E+00
  0.66621849E+00  0.62876188E+00  0.87964697E+00
  0.89699341E+00  0.58373662E+00  0.16076403E+00
  0.19248184E+00  0.62986676E+00  0.62857954E+00
  0.56516922E-01  0.71353283E+00  0.39743428E+00
  0.60874666E+00  0.79232628E+00  0.62950811E+00
  0.49737049E+00  0.55230352E+00  0.10145674E+00
  0.69400247E+00  0.63252617E+00  0.36274654E+00
  0.89338314E+00  0.57170835E+00  0.60718703E+00
  0.96157222E+00  0.79447967E+00  0.60893152E+00
  0.99292177E+00  0.69443899E+00  0.89482056E+00
  0.79844996E+00  0.88747602E+00  0.87351959E+00
  0.52757621E+00  0.57723800E+00  0.59514416E+00
  0.31626028E+00  0.86591515E+00  0.10283170E+00
  0.47290539E+00  0.95526017E+00  0.40395467E+00
  0.00000000E+00  0.00000000E+00  0.00000000E+00
  0.00000000E+00  0.00000000E+00  0.00000000E+00
  0.00000000E+00  0.00000000E+00  0.00000000E+00
  0.00000000E+00  0.00000000E+00  0.00000000E+00
  0.00000000E+00  0.00000000E+00  0.00000000E+00
  0.00000000E+00  0.00000000E+00  0.00000000E+00
  0.00000000E+00  0.00000000E+00  0.00000000E+00
  0.00000000E+00  0.00000000E+00  0.00000000E+00
  0.00000000E+00  0.00000000E+00  0.00000000E+00
  0.00000000E+00  0.00000000E+00  0.00000000E+00
  0.00000000E+00  0.00000000E+00  0.00000000E+00
  0.00000000E+00  0.00000000E+00  0.00000000E+00
  0.00000000E+00  0.00000000E+00  0.00000000E+00
  0.00000000E+00  0.00000000E+00  0.00000000E+00
  0.00000000E+00  0.00000000E+00  0.00000000E+00
  0.00000000E+00  0.00000000E+00  0.00000000E+00
  0.00000000E+00  0.00000000E+00  0.00000000E+00
  0.00000000E+00  0.00000000E+00  0.00000000E+00
  0.00000000E+00  0.00000000E+00  0.00000000E+00
  0.00000000E+00  0.00000000E+00  0.00000000E+00
  0.00000000E+00  0.00000000E+00  0.00000000E+00
  0.00000000E+00  0.00000000E+00  0.00000000E+00
  0.00000000E+00  0.00000000E+00  0.00000000E+00
  0.00000000E+00  0.00000000E+00  0.00000000E+00
  0.00000000E+00  0.00000000E+00  0.00000000E+00
  0.00000000E+00  0.00000000E+00  0.00000000E+00
  0.00000000E+00  0.00000000E+00  0.00000000E+00
  0.00000000E+00  0.00000000E+00  0.00000000E+00
  0.00000000E+00  0.00000000E+00  0.00000000E+00
  0.00000000E+00  0.00000000E+00  0.00000000E+00
  0.00000000E+00  0.00000000E+00  0.00000000E+00
  0.00000000E+00  0.00000000E+00  0.00000000E+00
  0.00000000E+00  0.00000000E+00  0.00000000E+00
  0.00000000E+00  0.00000000E+00  0.00000000E+00
  0.00000000E+00  0.00000000E+00  0.00000000E+00
  0.00000000E+00  0.00000000E+00  0.00000000E+00
  0.00000000E+00  0.00000000E+00  0.00000000E+00
  0.00000000E+00  0.00000000E+00  0.00000000E+00
  0.00000000E+00  0.00000000E+00  0.00000000E+00
  0.00000000E+00  0.00000000E+00  0.00000000E+00
  0.00000000E+00  0.00000000E+00  0.00000000E+00
  0.00000000E+00  0.00000000E+00  0.00000000E+00
  0.00000000E+00  0.00000000E+00  0.00000000E+00
  0.00000000E+00  0.00000000E+00  0.00000000E+00
  0.00000000E+00  0.00000000E+00  0.00000000E+00
  0.00000000E+00  0.00000000E+00  0.00000000E+00
  0.00000000E+00  0.00000000E+00  0.00000000E+00
  0.00000000E+00  0.00000000E+00  0.00000000E+00
  0.00000000E+00  0.00000000E+00  0.00000000E+00
  0.00000000E+00  0.00000000E+00  0.00000000E+00
  0.00000000E+00  0.00000000E+00  0.00000000E+00
  0.00000000E+00  0.00000000E+00  0.00000000E+00
  0.00000000E+00  0.00000000E+00  0.00000000E+00
  0.00000000E+00  0.00000000E+00  0.00000000E+00
  0.00000000E+00  0.00000000E+00  0.00000000E+00
  0.00000000E+00  0.00000000E+00  0.00000000E+00
  0.00000000E+00  0.00000000E+00  0.00000000E+00
  0.00000000E+00  0.00000000E+00  0.00000000E+00
  0.00000000E+00  0.00000000E+00  0.00000000E+00
  0.00000000E+00  0.00000000E+00  0.00000000E+00
  0.00000000E+00  0.00000000E+00  0.00000000E+00
  0.00000000E+00  0.00000000E+00  0.00000000E+00
  0.00000000E+00  0.00000000E+00  0.00000000E+00
  0.00000000E+00  0.00000000E+00  0.00000000E+00
  0.00000000E+00  0.00000000E+00  0.00000000E+00
  0.00000000E+00  0.00000000E+00  0.00000000E+00
  0.00000000E+00  0.00000000E+00  0.00000000E+00
  0.00000000E+00  0.00000000E+00  0.00000000E+00
  0.00000000E+00  0.00000000E+00  0.00000000E+00
  0.00000000E+00  0.00000000E+00  0.00000000E+00
  0.00000000E+00  0.00000000E+00  0.00000000E+00
  0.00000000E+00  0.00000000E+00  0.00000000E+00
  0.00000000E+00  0.00000000E+00  0.00000000E+00
  0.00000000E+00  0.00000000E+00  0.00000000E+00
  0.00000000E+00  0.00000000E+00  0.00000000E+00
  0.00000000E+00  0.00000000E+00  0.00000000E+00
  0.00000000E+00  0.00000000E+00  0.00000000E+00
  0.00000000E+00  0.00000000E+00  0.00000000E+00
  0.00000000E+00  0.00000000E+00  0.00000000E+00
  0.00000000E+00  0.00000000E+00  0.00000000E+00
  0.00000000E+00  0.00000000E+00  0.00000000E+00
  0.00000000E+00  0.00000000E+00  0.00000000E+00
  0.00000000E+00  0.00000000E+00  0.00000000E+00
  0.00000000E+00  0.00000000E+00  0.00000000E+00
  0.00000000E+00  0.00000000E+00  0.00000000E+00
  0.00000000E+00  0.00000000E+00  0.00000000E+00
  0.00000000E+00  0.00000000E+00  0.00000000E+00
  0.00000000E+00  0.00000000E+00  0.00000000E+00
  0.00000000E+00  0.00000000E+00  0.00000000E+00
  0.00000000E+00  0.00000000E+00  0.00000000E+00
  0.00000000E+00  0.00000000E+00  0.00000000E+00
  0.00000000E+00  0.00000000E+00  0.00000000E+00
  0.00000000E+00  0.00000000E+00  0.00000000E+00
  0.00000000E+00  0.00000000E+00  0.00000000E+00
  0.00000000E+00  0.00000000E+00  0.00000000E+00
  0.00000000E+00  0.00000000E+00  0.00000000E+00
  0.00000000E+00  0.00000000E+00  0.00000000E+00
  0.00000000E+00  0.00000000E+00  0.00000000E+00
  0.00000000E+00  0.00000000E+00  0.00000000E+00
  0.00000000E+00  0.00000000E+00  0.00000000E+00
  0.00000000E+00  0.00000000E+00  0.00000000E+00
  0.00000000E+00  0.00000000E+00  0.00000000E+00
  0.00000000E+00  0.00000000E+00  0.00000000E+00
  0.00000000E+00  0.00000000E+00  0.00000000E+00
  0.00000000E+00  0.00000000E+00  0.00000000E+00
  0.00000000E+00  0.00000000E+00  0.00000000E+00
  0.00000000E+00  0.00000000E+00  0.00000000E+00
  0.00000000E+00  0.00000000E+00  0.00000000E+00
  0.00000000E+00  0.00000000E+00  0.00000000E+00
  0.00000000E+00  0.00000000E+00  0.00000000E+00
  0.00000000E+00  0.00000000E+00  0.00000000E+00
  0.00000000E+00  0.00000000E+00  0.00000000E+00
  0.00000000E+00  0.00000000E+00  0.00000000E+00
  0.00000000E+00  0.00000000E+00  0.00000000E+00
  0.00000000E+00  0.00000000E+00  0.00000000E+00
  0.00000000E+00  0.00000000E+00  0.00000000E+00
  0.00000000E+00  0.00000000E+00  0.00000000E+00
  0.00000000E+00  0.00000000E+00  0.00000000E+00
  0.00000000E+00  0.00000000E+00  0.00000000E+00
  0.00000000E+00  0.00000000E+00  0.00000000E+00
  0.00000000E+00  0.00000000E+00  0.00000000E+00
  0.00000000E+00  0.00000000E+00  0.00000000E+00
  0.00000000E+00  0.00000000E+00  0.00000000E+00
  0.00000000E+00  0.00000000E+00  0.00000000E+00
  0.00000000E+00  0.00000000E+00  0.00000000E+00
  0.00000000E+00  0.00000000E+00  0.00000000E+00
  0.00000000E+00  0.00000000E+00  0.00000000E+00
  0.00000000E+00  0.00000000E+00  0.00000000E+00
  0.00000000E+00  0.00000000E+00  0.00000000E+00
  0.00000000E+00  0.00000000E+00  0.00000000E+00
  0.00000000E+00  0.00000000E+00  0.00000000E+00
  0.00000000E+00  0.00000000E+00  0.00000000E+00
  0.00000000E+00  0.00000000E+00  0.00000000E+00
  0.00000000E+00  0.00000000E+00  0.00000000E+00
  0.00000000E+00  0.00000000E+00  0.00000000E+00
  0.00000000E+00  0.00000000E+00  0.00000000E+00
  0.00000000E+00  0.00000000E+00  0.00000000E+00
  0.00000000E+00  0.00000000E+00  0.00000000E+00
  0.00000000E+00  0.00000000E+00  0.00000000E+00
  0.00000000E+00  0.00000000E+00  0.00000000E+00
  0.00000000E+00  0.00000000E+00  0.00000000E+00
  0.00000000E+00  0.00000000E+00  0.00000000E+00
  0.00000000E+00  0.00000000E+00  0.00000000E+00
  0.00000000E+00  0.00000000E+00  0.00000000E+00
  0.00000000E+00  0.00000000E+00  0.00000000E+00
  0.00000000E+00  0.00000000E+00  0.00000000E+00
  0.00000000E+00  0.00000000E+00  0.00000000E+00
  0.00000000E+00  0.00000000E+00  0.00000000E+00
  0.00000000E+00  0.00000000E+00  0.00000000E+00
  0.00000000E+00  0.00000000E+00  0.00000000E+00
  0.00000000E+00  0.00000000E+00  0.00000000E+00
  0.00000000E+00  0.00000000E+00  0.00000000E+00
  0.00000000E+00  0.00000000E+00  0.00000000E+00
  0.00000000E+00  0.00000000E+00  0.00000000E+00
  0.00000000E+00  0.00000000E+00  0.00000000E+00
  0.00000000E+00  0.00000000E+00  0.00000000E+00
  0.00000000E+00  0.00000000E+00  0.00000000E+00
  0.00000000E+00  0.00000000E+00  0.00000000E+00
  0.00000000E+00  0.00000000E+00  0.00000000E+00
  0.00000000E+00  0.00000000E+00  0.00000000E+00
  0.00000000E+00  0.00000000E+00  0.00000000E+00
  0.00000000E+00  0.00000000E+00  0.00000000E+00
  0.00000000E+00  0.00000000E+00  0.00000000E+00
  0.00000000E+00  0.00000000E+00  0.00000000E+00
  0.00000000E+00  0.00000000E+00  0.00000000E+00
  0.00000000E+00  0.00000000E+00  0.00000000E+00
  0.00000000E+00  0.00000000E+00  0.00000000E+00
  0.00000000E+00  0.00000000E+00  0.00000000E+00
  0.00000000E+00  0.00000000E+00  0.00000000E+00
  0.00000000E+00  0.00000000E+00  0.00000000E+00
  0.00000000E+00  0.00000000E+00  0.00000000E+00
  0.00000000E+00  0.00000000E+00  0.00000000E+00
  0.00000000E+00  0.00000000E+00  0.00000000E+00
  0.00000000E+00  0.00000000E+00  0.00000000E+00
  0.00000000E+00  0.00000000E+00  0.00000000E+00
  0.00000000E+00  0.00000000E+00  0.00000000E+00
  0.00000000E+00  0.00000000E+00  0.00000000E+00
  0.00000000E+00  0.00000000E+00  0.00000000E+00
  0.00000000E+00  0.00000000E+00  0.00000000E+00
  0.00000000E+00  0.00000000E+00  0.00000000E+00
  0.00000000E+00  0.00000000E+00  0.00000000E+00
  0.00000000E+00  0.00000000E+00  0.00000000E+00
  0.00000000E+00  0.00000000E+00  0.00000000E+00
  0.00000000E+00  0.00000000E+00  0.00000000E+00
  0.00000000E+00  0.00000000E+00  0.00000000E+00
  0.00000000E+00  0.00000000E+00  0.00000000E+00
  0.00000000E+00  0.00000000E+00  0.00000000E+00
  0.00000000E+00  0.00000000E+00  0.00000000E+00
  0.00000000E+00  0.00000000E+00  0.00000000E+00
  0.00000000E+00  0.00000000E+00  0.00000000E+00
  0.00000000E+00  0.00000000E+00  0.00000000E+00
  0.00000000E+00  0.00000000E+00  0.00000000E+00
  0.00000000E+00  0.00000000E+00  0.00000000E+00
  0.00000000E+00  0.00000000E+00  0.00000000E+00
  0.00000000E+00  0.00000000E+00  0.00000000E+00
  0.00000000E+00  0.00000000E+00  0.00000000E+00
  0.00000000E+00  0.00000000E+00  0.00000000E+00
  0.00000000E+00  0.00000000E+00  0.00000000E+00
  0.00000000E+00  0.00000000E+00  0.00000000E+00
  0.00000000E+00  0.00000000E+00  0.00000000E+00
  0.00000000E+00  0.00000000E+00  0.00000000E+00
  0.00000000E+00  0.00000000E+00  0.00000000E+00
  0.00000000E+00  0.00000000E+00  0.00000000E+00
  0.00000000E+00  0.00000000E+00  0.00000000E+00
  0.00000000E+00  0.00000000E+00  0.00000000E+00
  0.00000000E+00  0.00000000E+00  0.00000000E+00
  0.00000000E+00  0.00000000E+00  0.00000000E+00
  0.00000000E+00  0.00000000E+00  0.00000000E+00
  0.00000000E+00  0.00000000E+00  0.00000000E+00
  0.00000000E+00  0.00000000E+00  0.00000000E+00
  0.00000000E+00  0.00000000E+00  0.00000000E+00
  0.00000000E+00  0.00000000E+00  0.00000000E+00
  0.00000000E+00  0.00000000E+00  0.00000000E+00
  0.00000000E+00  0.00000000E+00  0.00000000E+00
  0.00000000E+00  0.00000000E+00  0.00000000E+00
  0.00000000E+00  0.00000000E+00  0.00000000E+00
  0.00000000E+00  0.00000000E+00  0.00000000E+00
  0.00000000E+00  0.00000000E+00  0.00000000E+00
  0.00000000E+00  0.00000000E+00  0.00000000E+00
  0.00000000E+00  0.00000000E+00  0.00000000E+00
  0.00000000E+00  0.00000000E+00  0.00000000E+00
  0.00000000E+00  0.00000000E+00  0.00000000E+00
  0.00000000E+00  0.00000000E+00  0.00000000E+00
  0.00000000E+00  0.00000000E+00  0.00000000E+00
