Na24 Al8 S24                            
   1.0000000000000000     
    12.1828203277415312   -0.0000000000000000    0.0000000000000007
    -0.0000000000000010   15.1349386410830835    2.3941278804312205
     0.0000000000000000    0.0113082934473333   13.7304524371335805
   Na   Al   S 
    48    16    48
Direct
  0.9249293251133965  0.0472657178720744  0.8688905328112105
  0.7498703757607275  0.4266786223486961  0.0166748906074351
  0.8559087656960683  0.2525557179539302  0.7491140664390251
  0.7137555742990849  0.5026626433287759  0.5103317985289625
  0.9320290125088532  0.0558119913045062  0.3471988479937834
  0.2689773007998135  0.2410568415537494  0.4996691927070896
  0.7863577598390399  0.2596810207495521  0.2476403727695252
  0.2513764704679796  0.0092171461498739  0.4714298547580720
  0.7364989677036780  0.1786154445141093  0.0146990119556663
  0.4769907294909712  0.1781295258808301  0.6966774804715826
  0.1900666155818205  0.2804517802460275  0.9856199159898742
  0.2509931216254883  0.0579415690989084  0.9861556816461449
  0.7495396702096822  0.2697812909942522  0.4934401122300791
  0.2053858447733674  0.2539117068132382  0.2576112255748617
  0.0660589052125866  0.4753884017903263  0.1373991430142543
  0.5126535545124180  0.2984790263012468  0.3046270379147195
  0.3148173803582647  0.4732661377330067  0.7701963483303665
  0.0304430971382169  0.4670824338780871  0.7164786916544171
  0.3336363394798243  0.5032199295596493  0.2703846152618640
  0.1656197844114092  0.2291421081728067  0.7460992100508287
  0.4070146157328412  0.2157899037039251  0.1078950483782656
  0.6513564075831113 -0.0068349689653506  0.7472235777194934
  0.5554633023467119  0.3127530614593651  0.8353637860304864
  0.6885205619422743  0.0085551780756084  0.2546952194247786
  0.9128271456012803  0.5710760075712260  0.9028538528963115
  0.7306827689062749  0.9590760737955735  0.0172122731510349
  0.8269778980052294  0.7416569436584923  0.7298514329314756
  0.7593697454679756  0.9743759571173023  0.5447105898163280
  0.9793281775567366  0.5384193016438381  0.3364931361193615
  0.2926773845117043  0.7846579909589014  0.4662172187261242
  0.7898276087460141  0.7623833292891998  0.2758831715045900
  0.2232618583875209  0.4791682582381772  0.5112155646015704
  0.7239668721851517  0.6791913865252026  0.0519310526850562
  0.4996888795939260  0.6922810165177914  0.6972913530089171
  0.2437629061270993  0.7913028819615641  0.9809259293221106
  0.2814218526856795  0.5362758076354561  1.0187752645786019
  0.7115059718435229  0.7545523824930559  0.5135263568964058
  0.1569667621724518  0.7415971384025156  0.2517585428780016
  0.0443280171752206  0.9579681677381852  0.1532726184642580
  0.5177745893941076  0.8020402151449383  0.2813068982092130
  0.3046565811094979  0.9576831162652720  0.7883160934794070
  0.0567594833678091  0.9557551137063229  0.6983669023045399
  0.3461079612701656  1.0029685104758306  0.2652176896157117
  0.1941853954415003  0.7057987322612281  0.7483170236039947
  0.4366372369759827  0.6948227407885147  0.1259254817059202
  0.6740435806342023  0.5189225077048824  0.7122188761931423
  0.6093662363461951  0.7964959999830540  0.8780745401336356
  0.7098598670352974  0.5266295571516192  0.2500540397794219
  0.0041777862133910  0.1817843383713239  0.0731951233439296
  0.0337356388319006  0.1458021083351016  0.5760643969414914
  0.5269978204279859  0.0667028544183178  0.4195635238110242
  0.4931756108271788  0.4094233316635141  0.5619045358535031
  0.5028165945787058  0.0981132463812977  0.9207366244933010
  0.4909843756051723  0.3957077908633332  0.0604831237585459
  1.0160791756081291  0.3370405252585646  0.4183689751295525
  0.9710075014518723  0.3527946935845543  0.9152148645822298
  0.0305762582453199  0.6692452726372217  0.0639708207684164
  0.0141692473598411  0.6676029598983264  0.5609858190006156
  0.4930114165851338  0.5869754562923186  0.4308088736864374
  0.4869781005731649  0.8899378915854759  0.5804129617963423
  0.5455576663396411  0.5760911051723797  0.9505290492887118
  0.4808909324359681  0.9208984542088405  0.0649503488793611
  0.9946411896664217  0.8390430026499825  0.4244843721780618
  0.9740503606673937  0.8368082067514492  0.9421332449111313
  0.3672350022088689  0.1948136445125196  0.8862346851799359
  0.1762256593623543  0.1387563633737720  0.1273444318588570
  0.3770600203169386  0.1596617132660650  0.3667360788072914
  0.1129734854458245  0.4478395342807689  0.9090339316417350
 -0.0507602549840834  0.3171799304019853  0.0934773779193396
  0.6245159002883132  0.3021951560200770  0.1164716103265870
  0.8488793384477842  0.4130546162386624  0.3626874096344206
  0.1316335457135468  0.4152356885275460  0.3134411664180274
  0.3343300435829150  0.3398417585900961  0.6328603636288325
  0.4824338815912070  0.4559319916202948  0.8944198369468749
  0.6412970254227437  0.1497185723991309  0.8355628572031225
  0.8737911511682189  0.0699163517828736  0.0980701043186183
  0.1902624391009351  0.0957968237871202  0.6249224145860786
  0.0600181369433102  0.1945209563763990  0.3958011339832614
  0.6425736767171979  0.3444608652196280  0.6378487440445895
  0.5176523284089383  0.0468964600230801  0.1180045635298747
  0.6748576003642512  0.1423198612834699  0.3614711194680226
  0.8802986288877283  0.0788052128217390  0.6417052761127356
  1.0155402560031399  0.3073217025446120  0.5876573050683586
  1.0006876951551491  0.2059871434534666  0.8944075403064117
  0.8267851395277528  0.4074967283942932  0.8371738690322654
  0.4883441757949059  0.0473535124195104  0.5804250243432905
  0.3308735034610806  0.3543409978032126  0.1279826429580104
  0.4991600220419501  0.4514623471365984  0.3938701004912870
  0.4063385173742707  0.6728373876444387  0.9189281458328860
  0.1913144005390649  0.6311113337671004  0.1323303631000049
  0.3572404126113745  0.6716551513458413  0.3551239238717955
  0.1070955565232055  0.9383281519749382  0.8967442888684843
 -0.0365535627756198  0.7990748954147738  0.1116578167634783
  0.6231996875594077  0.8235540903124225  0.1093056502844305
  0.8213765708465619  0.8960314744005875  0.3870854143663446
  0.1356374614537172  0.9080982072542950  0.3552357546348646
  0.3328931343215789  0.8316115279415737  0.6377964404893487
  0.4754456589893321  0.9587686487831516  0.8970130445039344
  0.6917120330801441  0.6277491941128748  0.8672518181324662
  0.8859579257458781  0.5726177874727268  0.0952612487114541
  0.1491136996342021  0.5843815734558514  0.6137598637330640
 -0.0030401405345480  0.6938918252450117  0.3891008234620129
  0.6398591782507400  0.8381099180617937  0.6676445114739363
  0.5457687185114710  0.5386812157099470  0.1183936495639678
  0.6580771819189768  0.6443482409663965  0.3847041212316978
  0.8531354809227040  0.6059806638268258  0.6212408235507708
  1.0161361821957620  0.8095961479345943  0.6017580382823735
  1.0434750797996697  0.7091735609363353  0.8919511012810672
  0.8245005560624048  0.8888905621282448  0.8443381219282280
  0.4910778820103434  0.5610036283546054  0.5925995179218677
  0.3168113454378388  0.8766060946504275  0.1222341845762407
  0.4889088705174748  0.9193305722726716  0.4127342427516092

 -0.40214489E-02  0.93526660E-02 -0.27844218E-02
  0.33046860E-02  0.20544599E-02 -0.17734160E-02
 -0.35305761E-02  0.16289597E-02  0.45479200E-03
  0.58765789E-02  0.71443600E-02  0.26442215E-02
  0.10868344E-02 -0.17504204E-02  0.17835659E-02
 -0.34609231E-02 -0.15960396E-02 -0.18261199E-02
 -0.67521704E-02  0.39119046E-02  0.25744178E-02
  0.57414816E-02 -0.21948607E-02 -0.65962798E-02
  0.34262678E-03 -0.75685298E-02  0.57432382E-02
 -0.18876146E-02 -0.57026767E-02  0.92761616E-02
  0.17906246E-02  0.76653386E-02 -0.10783528E-01
 -0.23980310E-02  0.84519711E-03  0.10575899E-03
 -0.67683780E-02  0.16351641E-02  0.85058339E-02
 -0.73906374E-02 -0.46551652E-02 -0.26287825E-02
  0.54489725E-02  0.52622118E-03  0.61177842E-02
  0.35312387E-03  0.77599268E-03 -0.29733407E-02
 -0.36677041E-02  0.28309600E-02  0.40698980E-02
 -0.85044962E-02 -0.48671840E-02  0.73888781E-02
 -0.11061774E-01 -0.22362323E-02  0.42381875E-02
  0.86695217E-02 -0.13510194E-02 -0.70607961E-02
  0.25461340E-03 -0.21902501E-02 -0.44764345E-02
 -0.23749402E-02 -0.16427683E-02  0.32005414E-02
  0.13011168E-01  0.43812347E-03  0.15220749E-02
  0.68481553E-02 -0.52007934E-02  0.20850048E-02
  0.48721158E-02  0.70575123E-02 -0.52113681E-02
  0.39735997E-02 -0.16866826E-02  0.13607491E-02
  0.53231236E-02 -0.44525624E-03 -0.86354837E-02
  0.34053430E-03  0.15822617E-02 -0.14976993E-02
 -0.18093585E-02  0.73990950E-02  0.12249192E-02
  0.28741483E-02  0.70479587E-02  0.97381714E-03
 -0.43310862E-02  0.58373153E-03  0.70424172E-02
  0.19092955E-02 -0.28134748E-02 -0.28369823E-02
  0.32610135E-02  0.58603603E-02 -0.11274962E-02
 -0.55878476E-02  0.50802101E-02 -0.12556169E-02
 -0.35608062E-03  0.88783425E-02  0.56692901E-02
 -0.63832817E-02  0.62652543E-02  0.40027904E-02
  0.89071370E-04 -0.25512642E-02  0.84242291E-03
 -0.60242871E-02  0.10332631E-02  0.44430317E-02
 -0.10577802E-02 -0.84779264E-02  0.30449333E-02
  0.32545806E-02  0.42830362E-02 -0.26791115E-03
 -0.47629320E-02 -0.30863204E-02 -0.70825263E-02
  0.13361295E-02 -0.72929400E-02  0.75024638E-02
  0.31964000E-02  0.28563147E-02  0.12600252E-02
  0.10797452E-01 -0.71860823E-02  0.24251507E-02
  0.64710601E-02 -0.38739049E-02 -0.39182947E-02
  0.28488273E-02  0.52011160E-02  0.73434197E-02
 -0.23200971E-02 -0.24192074E-02 -0.21354576E-02
 -0.47840445E-02 -0.16932078E-02  0.68176318E-02
 -0.20722570E-02  0.14796889E-02  0.46860307E-02
 -0.31444827E-02  0.44302585E-02 -0.73715613E-02
  0.23490230E-02  0.89045209E-03 -0.46922641E-02
  0.40544916E-03 -0.15656203E-02  0.90022487E-02
  0.15671162E-02 -0.94176353E-02 -0.20020272E-03
  0.38233678E-02  0.50065831E-02 -0.38299389E-02
  0.17658868E-02 -0.21163881E-02  0.43802229E-03
 -0.77730940E-03 -0.10577350E-02  0.21984456E-02
  0.65231869E-02  0.24721244E-03  0.21889191E-02
  0.65334968E-02 -0.15913866E-02 -0.33844857E-02
  0.14443824E-02  0.15804756E-02 -0.32991446E-02
 -0.11838478E-02 -0.44686538E-02 -0.29646605E-02
  0.47860787E-03  0.30167553E-03 -0.53854878E-02
 -0.27670892E-02  0.48901532E-02  0.63973140E-02
 -0.41471383E-02  0.59833693E-02  0.37176430E-03
  0.29117606E-02  0.92457738E-03 -0.15261872E-03
  0.70372745E-02 -0.85291421E-03  0.34434129E-02
 -0.22421865E-04  0.12411813E-03 -0.18820036E-02
  0.26799712E-02 -0.65470380E-02 -0.87965052E-02
  0.37702071E-02 -0.99321857E-03 -0.25003733E-02
  0.32863160E-02 -0.61183610E-03  0.35812975E-02
 -0.36602872E-02 -0.49577887E-02 -0.84805772E-03
  0.57434938E-02 -0.71612021E-02  0.36597154E-02
 -0.22062247E-02 -0.61820618E-02  0.20957786E-02
  0.15684146E-02 -0.52235877E-02  0.66979307E-02
  0.26145724E-02 -0.13988399E-02  0.24413787E-02
 -0.26369801E-02 -0.62816378E-02 -0.69954398E-02
 -0.20311487E-02 -0.12934289E-02 -0.30722547E-02
 -0.68132202E-02  0.38859876E-02 -0.87053027E-02
  0.25718689E-02  0.27891282E-02  0.13088289E-02
 -0.25005734E-02 -0.23611864E-02 -0.32148675E-02
 -0.22158021E-02  0.56383912E-02 -0.92899307E-02
  0.13406613E-02 -0.68277724E-02 -0.40833907E-02
 -0.62436970E-02  0.42790218E-02  0.21159813E-02
  0.29846468E-02  0.52412191E-02  0.41596146E-02
 -0.40726575E-02 -0.66249505E-03 -0.88654656E-03
 -0.20478975E-02 -0.11845713E-02  0.40999951E-02
 -0.74086261E-02  0.47113127E-02 -0.73397888E-04
 -0.70113751E-03  0.18620282E-02 -0.38867535E-03
  0.21513514E-02 -0.40764201E-02 -0.43090170E-02
 -0.75660029E-02  0.75763894E-03 -0.38441107E-02
  0.36138251E-02  0.56799597E-03  0.15357310E-02
  0.62605065E-03  0.50463903E-02  0.29126773E-02
 -0.11542673E-01  0.46378119E-03  0.45092142E-02
  0.15259296E-02 -0.41317443E-02  0.40159435E-02
  0.45357302E-02 -0.23197269E-02 -0.19523519E-02
  0.19025442E-02  0.79842180E-02 -0.47915815E-02
  0.94698600E-03 -0.22601224E-02  0.13692540E-02
 -0.39969784E-02 -0.12328859E-02  0.58828105E-02
 -0.16053388E-02 -0.11739329E-02 -0.14395258E-02
  0.34009679E-02 -0.47005171E-02 -0.31948626E-02
  0.17526405E-02 -0.39168207E-02  0.85860657E-02
 -0.33879988E-02  0.34888655E-02 -0.39232284E-02
  0.57688529E-02  0.13277112E-03  0.14199543E-03
  0.69932261E-02  0.18055807E-02 -0.40635688E-02
 -0.24700097E-02 -0.44000991E-02 -0.19208379E-02
  0.59424265E-03  0.22266528E-02  0.46878866E-03
 -0.39920353E-02  0.98497537E-02 -0.62902619E-02
  0.35956922E-02  0.54525386E-02 -0.22480859E-03
 -0.19779947E-02  0.39645200E-02 -0.66656229E-03
  0.27435284E-02 -0.33141600E-02 -0.33517275E-02
 -0.50913955E-02 -0.30823692E-02 -0.21646063E-02
 -0.20805626E-02 -0.24452996E-02  0.45951297E-02
 -0.19100301E-02  0.73076110E-03  0.24868942E-02

           1
   2.0000000000000000     
 -0.50416509E+00  0.68776336E-03  0.98798695E-04 -0.50455837E+00
  0.92426914E+00  0.48502086E-01  0.86826937E+00
  0.75041289E+00  0.42695034E+00  0.16369194E-01
  0.85532917E+00  0.25277095E+00  0.74914278E+00
  0.71472031E+00  0.50360657E+00  0.51055237E+00
  0.93220743E+00  0.55580458E-01  0.34749902E+00
  0.26840914E+00  0.24084610E+00  0.49943994E+00
  0.78524929E+00  0.26019774E+00  0.24792527E+00
  0.25231902E+00  0.89277874E-02  0.47051948E+00
  0.73655522E+00  0.17761455E+00  0.15710104E-01
  0.47668085E+00  0.17737484E+00  0.69816025E+00
  0.19036057E+00  0.28146602E+00  0.98387232E+00
  0.25059945E+00  0.58053260E-01  0.98615161E+00
  0.74842854E+00  0.26999647E+00  0.49464157E+00
  0.20417256E+00  0.25329676E+00  0.25733554E+00
  0.66953439E-01  0.47545728E+00  0.13827826E+00
  0.51271153E+00  0.29858191E+00  0.30417600E+00
  0.31421527E+00  0.47363984E+00  0.77072402E+00
  0.29046951E-01  0.46643837E+00  0.71766727E+00
  0.33182038E+00  0.50292392E+00  0.27105357E+00
  0.16704302E+00  0.22896432E+00  0.74510172E+00
  0.40705641E+00  0.21550092E+00  0.10729339E+00
  0.65096652E+00  0.99294757E+00  0.74772769E+00
  0.55759929E+00  0.31281080E+00  0.83557543E+00
  0.68964479E+00  0.78676050E-02  0.25511881E+00
  0.91362698E+00  0.57200931E+00  0.90193202E+00
  0.73133510E+00  0.95885301E+00  0.17449377E-01
  0.82785177E+00  0.74159904E+00  0.72860367E+00
  0.75942565E+00  0.97458523E+00  0.54445594E+00
  0.97903114E+00  0.53939705E+00  0.33650107E+00
  0.29314922E+00  0.78558936E+00  0.46619667E+00
  0.78911659E+00  0.76245971E+00  0.27689566E+00
  0.22357530E+00  0.47879673E+00  0.51086711E+00
  0.72450222E+00  0.67996602E+00  0.51631749E-01
  0.49877155E+00  0.69295256E+00  0.69699136E+00
  0.24370445E+00  0.79247564E+00  0.98154724E+00
  0.28037394E+00  0.53710340E+00  0.19214013E-01
  0.71152059E+00  0.75421511E+00  0.51370787E+00
  0.15597778E+00  0.74173321E+00  0.25238200E+00
  0.44154366E-01  0.95684738E+00  0.15391158E+00
  0.51830888E+00  0.80260630E+00  0.28116917E+00
  0.30387467E+00  0.95727599E+00  0.78735543E+00
  0.56978830E-01  0.95479045E+00  0.69962793E+00
  0.34663270E+00  0.33458690E-02  0.26533543E+00
  0.19595797E+00  0.70484874E+00  0.74883592E+00
  0.43769956E+00  0.69431119E+00  0.12544393E+00
  0.67451126E+00  0.51960910E+00  0.71316881E+00
  0.60898536E+00  0.79617651E+00  0.87781919E+00
  0.70907449E+00  0.52640504E+00  0.25108626E+00
  0.38375929E-02  0.18197939E+00  0.73843688E-01
  0.33219423E-01  0.14638842E+00  0.57488841E+00
  0.52738345E+00  0.66821049E-01  0.41885943E+00
  0.49324217E+00  0.40921544E+00  0.56325207E+00
  0.50307386E+00  0.96868617E-01  0.92092448E+00
  0.49161204E+00  0.39636989E+00  0.59809801E-01
  0.16369073E-01  0.33676077E+00  0.41848156E+00
  0.97087989E+00  0.35265466E+00  0.91555951E+00
  0.31647141E-01  0.66927771E+00  0.64284007E-01
  0.15241823E-01  0.66739301E+00  0.56052944E+00
  0.49324853E+00  0.58718469E+00  0.43029183E+00
  0.48678375E+00  0.88934763E+00  0.58008405E+00
  0.54563624E+00  0.57613156E+00  0.94973754E+00
  0.48043667E+00  0.92154405E+00  0.65769622E-01
  0.99396037E+00  0.83983373E+00  0.42440065E+00
  0.97452837E+00  0.83693042E+00  0.94208970E+00
  0.36839028E+00  0.19470055E+00  0.88675598E+00
  0.17622198E+00  0.13877297E+00  0.12706740E+00
  0.37749998E+00  0.15879740E+00  0.36560547E+00
  0.11359242E+00  0.44770854E+00  0.90869256E+00
  0.94977925E+00  0.31709868E+00  0.94013203E-01
  0.62391501E+00  0.30154002E+00  0.11646231E+00
  0.84982222E+00  0.41210778E+00  0.36338559E+00
  0.13127136E+00  0.41441843E+00  0.31388894E+00
  0.33458752E+00  0.33915067E+00  0.63395650E+00
  0.48286310E+00  0.45574685E+00  0.89480773E+00
  0.64086412E+00  0.14888914E+00  0.83468851E+00
  0.87345771E+00  0.69745744E-01  0.97652343E-01
  0.18914394E+00  0.96311350E-01  0.62356467E+00
  0.60440349E-01  0.19488943E+00  0.39592753E+00
  0.64216317E+00  0.34414916E+00  0.63743481E+00
  0.51728857E+00  0.47642651E-01  0.11652127E+00
  0.67507769E+00  0.14141794E+00  0.36103359E+00
  0.87927363E+00  0.79370506E-01  0.64191493E+00
  0.16030232E-01  0.30801394E+00  0.58814250E+00
  0.19104897E-04  0.20589968E+00  0.89429365E+00
  0.82644895E+00  0.40733973E+00  0.83779846E+00
  0.48712793E+00  0.47976176E-01  0.58030576E+00
  0.33075840E+00  0.35458713E+00  0.12788311E+00
  0.49951320E+00  0.45092407E+00  0.39333630E+00
  0.40509644E+00  0.67293794E+00  0.91835067E+00
  0.19190767E+00  0.63118623E+00  0.13254100E+00
  0.35734319E+00  0.67232177E+00  0.35543195E+00
  0.10520065E+00  0.93838896E+00  0.89739051E+00
  0.96369694E+00  0.79852840E+00  0.11233808E+00
  0.62394430E+00  0.82324772E+00  0.10907469E+00
  0.82168890E+00  0.89708720E+00  0.38620338E+00
  0.13579292E+00  0.90779936E+00  0.35548731E+00
  0.33223697E+00  0.83144795E+00  0.63868186E+00
  0.47518212E+00  0.95861366E+00  0.89683039E+00
  0.69227036E+00  0.62712831E+00  0.86689471E+00
  0.88624565E+00  0.57209920E+00  0.96602333E-01
  0.14855751E+00  0.58484310E+00  0.61310793E+00
  0.99790691E+00  0.69390936E+00  0.38911845E+00
  0.64100723E+00  0.83834899E+00  0.66701092E+00
  0.54536323E+00  0.53809990E+00  0.11821522E+00
  0.65817474E+00  0.64464247E+00  0.38472110E+00
  0.85248013E+00  0.60728311E+00  0.62009747E+00
  0.16726471E-01  0.81031679E+00  0.60159964E+00
  0.43150361E-01  0.70969759E+00  0.89176264E+00
  0.82495095E+00  0.88845292E+00  0.84392621E+00
  0.49024205E+00  0.56059649E+00  0.59235521E+00
  0.31646979E+00  0.87628242E+00  0.12295996E+00
  0.48859531E+00  0.91942688E+00  0.41307969E+00
  0.00000000E+00  0.00000000E+00  0.00000000E+00
  0.00000000E+00  0.00000000E+00  0.00000000E+00
  0.00000000E+00  0.00000000E+00  0.00000000E+00
  0.00000000E+00  0.00000000E+00  0.00000000E+00
  0.00000000E+00  0.00000000E+00  0.00000000E+00
  0.00000000E+00  0.00000000E+00  0.00000000E+00
  0.00000000E+00  0.00000000E+00  0.00000000E+00
  0.00000000E+00  0.00000000E+00  0.00000000E+00
  0.00000000E+00  0.00000000E+00  0.00000000E+00
  0.00000000E+00  0.00000000E+00  0.00000000E+00
  0.00000000E+00  0.00000000E+00  0.00000000E+00
  0.00000000E+00  0.00000000E+00  0.00000000E+00
  0.00000000E+00  0.00000000E+00  0.00000000E+00
  0.00000000E+00  0.00000000E+00  0.00000000E+00
  0.00000000E+00  0.00000000E+00  0.00000000E+00
  0.00000000E+00  0.00000000E+00  0.00000000E+00
  0.00000000E+00  0.00000000E+00  0.00000000E+00
  0.00000000E+00  0.00000000E+00  0.00000000E+00
  0.00000000E+00  0.00000000E+00  0.00000000E+00
  0.00000000E+00  0.00000000E+00  0.00000000E+00
  0.00000000E+00  0.00000000E+00  0.00000000E+00
  0.00000000E+00  0.00000000E+00  0.00000000E+00
  0.00000000E+00  0.00000000E+00  0.00000000E+00
  0.00000000E+00  0.00000000E+00  0.00000000E+00
  0.00000000E+00  0.00000000E+00  0.00000000E+00
  0.00000000E+00  0.00000000E+00  0.00000000E+00
  0.00000000E+00  0.00000000E+00  0.00000000E+00
  0.00000000E+00  0.00000000E+00  0.00000000E+00
  0.00000000E+00  0.00000000E+00  0.00000000E+00
  0.00000000E+00  0.00000000E+00  0.00000000E+00
  0.00000000E+00  0.00000000E+00  0.00000000E+00
  0.00000000E+00  0.00000000E+00  0.00000000E+00
  0.00000000E+00  0.00000000E+00  0.00000000E+00
  0.00000000E+00  0.00000000E+00  0.00000000E+00
  0.00000000E+00  0.00000000E+00  0.00000000E+00
  0.00000000E+00  0.00000000E+00  0.00000000E+00
  0.00000000E+00  0.00000000E+00  0.00000000E+00
  0.00000000E+00  0.00000000E+00  0.00000000E+00
  0.00000000E+00  0.00000000E+00  0.00000000E+00
  0.00000000E+00  0.00000000E+00  0.00000000E+00
  0.00000000E+00  0.00000000E+00  0.00000000E+00
  0.00000000E+00  0.00000000E+00  0.00000000E+00
  0.00000000E+00  0.00000000E+00  0.00000000E+00
  0.00000000E+00  0.00000000E+00  0.00000000E+00
  0.00000000E+00  0.00000000E+00  0.00000000E+00
  0.00000000E+00  0.00000000E+00  0.00000000E+00
  0.00000000E+00  0.00000000E+00  0.00000000E+00
  0.00000000E+00  0.00000000E+00  0.00000000E+00
  0.00000000E+00  0.00000000E+00  0.00000000E+00
  0.00000000E+00  0.00000000E+00  0.00000000E+00
  0.00000000E+00  0.00000000E+00  0.00000000E+00
  0.00000000E+00  0.00000000E+00  0.00000000E+00
  0.00000000E+00  0.00000000E+00  0.00000000E+00
  0.00000000E+00  0.00000000E+00  0.00000000E+00
  0.00000000E+00  0.00000000E+00  0.00000000E+00
  0.00000000E+00  0.00000000E+00  0.00000000E+00
  0.00000000E+00  0.00000000E+00  0.00000000E+00
  0.00000000E+00  0.00000000E+00  0.00000000E+00
  0.00000000E+00  0.00000000E+00  0.00000000E+00
  0.00000000E+00  0.00000000E+00  0.00000000E+00
  0.00000000E+00  0.00000000E+00  0.00000000E+00
  0.00000000E+00  0.00000000E+00  0.00000000E+00
  0.00000000E+00  0.00000000E+00  0.00000000E+00
  0.00000000E+00  0.00000000E+00  0.00000000E+00
  0.00000000E+00  0.00000000E+00  0.00000000E+00
  0.00000000E+00  0.00000000E+00  0.00000000E+00
  0.00000000E+00  0.00000000E+00  0.00000000E+00
  0.00000000E+00  0.00000000E+00  0.00000000E+00
  0.00000000E+00  0.00000000E+00  0.00000000E+00
  0.00000000E+00  0.00000000E+00  0.00000000E+00
  0.00000000E+00  0.00000000E+00  0.00000000E+00
  0.00000000E+00  0.00000000E+00  0.00000000E+00
  0.00000000E+00  0.00000000E+00  0.00000000E+00
  0.00000000E+00  0.00000000E+00  0.00000000E+00
  0.00000000E+00  0.00000000E+00  0.00000000E+00
  0.00000000E+00  0.00000000E+00  0.00000000E+00
  0.00000000E+00  0.00000000E+00  0.00000000E+00
  0.00000000E+00  0.00000000E+00  0.00000000E+00
  0.00000000E+00  0.00000000E+00  0.00000000E+00
  0.00000000E+00  0.00000000E+00  0.00000000E+00
  0.00000000E+00  0.00000000E+00  0.00000000E+00
  0.00000000E+00  0.00000000E+00  0.00000000E+00
  0.00000000E+00  0.00000000E+00  0.00000000E+00
  0.00000000E+00  0.00000000E+00  0.00000000E+00
  0.00000000E+00  0.00000000E+00  0.00000000E+00
  0.00000000E+00  0.00000000E+00  0.00000000E+00
  0.00000000E+00  0.00000000E+00  0.00000000E+00
  0.00000000E+00  0.00000000E+00  0.00000000E+00
  0.00000000E+00  0.00000000E+00  0.00000000E+00
  0.00000000E+00  0.00000000E+00  0.00000000E+00
  0.00000000E+00  0.00000000E+00  0.00000000E+00
  0.00000000E+00  0.00000000E+00  0.00000000E+00
  0.00000000E+00  0.00000000E+00  0.00000000E+00
  0.00000000E+00  0.00000000E+00  0.00000000E+00
  0.00000000E+00  0.00000000E+00  0.00000000E+00
  0.00000000E+00  0.00000000E+00  0.00000000E+00
  0.00000000E+00  0.00000000E+00  0.00000000E+00
  0.00000000E+00  0.00000000E+00  0.00000000E+00
  0.00000000E+00  0.00000000E+00  0.00000000E+00
  0.00000000E+00  0.00000000E+00  0.00000000E+00
  0.00000000E+00  0.00000000E+00  0.00000000E+00
  0.00000000E+00  0.00000000E+00  0.00000000E+00
  0.00000000E+00  0.00000000E+00  0.00000000E+00
  0.00000000E+00  0.00000000E+00  0.00000000E+00
  0.00000000E+00  0.00000000E+00  0.00000000E+00
  0.00000000E+00  0.00000000E+00  0.00000000E+00
  0.00000000E+00  0.00000000E+00  0.00000000E+00
  0.00000000E+00  0.00000000E+00  0.00000000E+00
  0.00000000E+00  0.00000000E+00  0.00000000E+00
  0.00000000E+00  0.00000000E+00  0.00000000E+00
  0.00000000E+00  0.00000000E+00  0.00000000E+00
  0.00000000E+00  0.00000000E+00  0.00000000E+00
  0.00000000E+00  0.00000000E+00  0.00000000E+00
  0.00000000E+00  0.00000000E+00  0.00000000E+00
  0.00000000E+00  0.00000000E+00  0.00000000E+00
  0.00000000E+00  0.00000000E+00  0.00000000E+00
  0.00000000E+00  0.00000000E+00  0.00000000E+00
  0.00000000E+00  0.00000000E+00  0.00000000E+00
  0.00000000E+00  0.00000000E+00  0.00000000E+00
  0.00000000E+00  0.00000000E+00  0.00000000E+00
  0.00000000E+00  0.00000000E+00  0.00000000E+00
  0.00000000E+00  0.00000000E+00  0.00000000E+00
  0.00000000E+00  0.00000000E+00  0.00000000E+00
  0.00000000E+00  0.00000000E+00  0.00000000E+00
  0.00000000E+00  0.00000000E+00  0.00000000E+00
  0.00000000E+00  0.00000000E+00  0.00000000E+00
  0.00000000E+00  0.00000000E+00  0.00000000E+00
  0.00000000E+00  0.00000000E+00  0.00000000E+00
  0.00000000E+00  0.00000000E+00  0.00000000E+00
  0.00000000E+00  0.00000000E+00  0.00000000E+00
  0.00000000E+00  0.00000000E+00  0.00000000E+00
  0.00000000E+00  0.00000000E+00  0.00000000E+00
  0.00000000E+00  0.00000000E+00  0.00000000E+00
  0.00000000E+00  0.00000000E+00  0.00000000E+00
  0.00000000E+00  0.00000000E+00  0.00000000E+00
  0.00000000E+00  0.00000000E+00  0.00000000E+00
  0.00000000E+00  0.00000000E+00  0.00000000E+00
  0.00000000E+00  0.00000000E+00  0.00000000E+00
  0.00000000E+00  0.00000000E+00  0.00000000E+00
  0.00000000E+00  0.00000000E+00  0.00000000E+00
  0.00000000E+00  0.00000000E+00  0.00000000E+00
  0.00000000E+00  0.00000000E+00  0.00000000E+00
  0.00000000E+00  0.00000000E+00  0.00000000E+00
  0.00000000E+00  0.00000000E+00  0.00000000E+00
  0.00000000E+00  0.00000000E+00  0.00000000E+00
  0.00000000E+00  0.00000000E+00  0.00000000E+00
  0.00000000E+00  0.00000000E+00  0.00000000E+00
  0.00000000E+00  0.00000000E+00  0.00000000E+00
  0.00000000E+00  0.00000000E+00  0.00000000E+00
  0.00000000E+00  0.00000000E+00  0.00000000E+00
  0.00000000E+00  0.00000000E+00  0.00000000E+00
  0.00000000E+00  0.00000000E+00  0.00000000E+00
  0.00000000E+00  0.00000000E+00  0.00000000E+00
  0.00000000E+00  0.00000000E+00  0.00000000E+00
  0.00000000E+00  0.00000000E+00  0.00000000E+00
  0.00000000E+00  0.00000000E+00  0.00000000E+00
  0.00000000E+00  0.00000000E+00  0.00000000E+00
  0.00000000E+00  0.00000000E+00  0.00000000E+00
  0.00000000E+00  0.00000000E+00  0.00000000E+00
  0.00000000E+00  0.00000000E+00  0.00000000E+00
  0.00000000E+00  0.00000000E+00  0.00000000E+00
  0.00000000E+00  0.00000000E+00  0.00000000E+00
  0.00000000E+00  0.00000000E+00  0.00000000E+00
  0.00000000E+00  0.00000000E+00  0.00000000E+00
  0.00000000E+00  0.00000000E+00  0.00000000E+00
  0.00000000E+00  0.00000000E+00  0.00000000E+00
  0.00000000E+00  0.00000000E+00  0.00000000E+00
  0.00000000E+00  0.00000000E+00  0.00000000E+00
  0.00000000E+00  0.00000000E+00  0.00000000E+00
  0.00000000E+00  0.00000000E+00  0.00000000E+00
  0.00000000E+00  0.00000000E+00  0.00000000E+00
  0.00000000E+00  0.00000000E+00  0.00000000E+00
  0.00000000E+00  0.00000000E+00  0.00000000E+00
  0.00000000E+00  0.00000000E+00  0.00000000E+00
  0.00000000E+00  0.00000000E+00  0.00000000E+00
  0.00000000E+00  0.00000000E+00  0.00000000E+00
  0.00000000E+00  0.00000000E+00  0.00000000E+00
  0.00000000E+00  0.00000000E+00  0.00000000E+00
  0.00000000E+00  0.00000000E+00  0.00000000E+00
  0.00000000E+00  0.00000000E+00  0.00000000E+00
  0.00000000E+00  0.00000000E+00  0.00000000E+00
  0.00000000E+00  0.00000000E+00  0.00000000E+00
  0.00000000E+00  0.00000000E+00  0.00000000E+00
  0.00000000E+00  0.00000000E+00  0.00000000E+00
  0.00000000E+00  0.00000000E+00  0.00000000E+00
  0.00000000E+00  0.00000000E+00  0.00000000E+00
  0.00000000E+00  0.00000000E+00  0.00000000E+00
  0.00000000E+00  0.00000000E+00  0.00000000E+00
  0.00000000E+00  0.00000000E+00  0.00000000E+00
  0.00000000E+00  0.00000000E+00  0.00000000E+00
  0.00000000E+00  0.00000000E+00  0.00000000E+00
  0.00000000E+00  0.00000000E+00  0.00000000E+00
  0.00000000E+00  0.00000000E+00  0.00000000E+00
  0.00000000E+00  0.00000000E+00  0.00000000E+00
  0.00000000E+00  0.00000000E+00  0.00000000E+00
  0.00000000E+00  0.00000000E+00  0.00000000E+00
  0.00000000E+00  0.00000000E+00  0.00000000E+00
  0.00000000E+00  0.00000000E+00  0.00000000E+00
  0.00000000E+00  0.00000000E+00  0.00000000E+00
  0.00000000E+00  0.00000000E+00  0.00000000E+00
  0.00000000E+00  0.00000000E+00  0.00000000E+00
  0.00000000E+00  0.00000000E+00  0.00000000E+00
  0.00000000E+00  0.00000000E+00  0.00000000E+00
  0.00000000E+00  0.00000000E+00  0.00000000E+00
  0.00000000E+00  0.00000000E+00  0.00000000E+00
  0.00000000E+00  0.00000000E+00  0.00000000E+00
  0.00000000E+00  0.00000000E+00  0.00000000E+00
  0.00000000E+00  0.00000000E+00  0.00000000E+00
  0.00000000E+00  0.00000000E+00  0.00000000E+00
  0.00000000E+00  0.00000000E+00  0.00000000E+00
  0.00000000E+00  0.00000000E+00  0.00000000E+00
  0.00000000E+00  0.00000000E+00  0.00000000E+00
  0.00000000E+00  0.00000000E+00  0.00000000E+00
  0.00000000E+00  0.00000000E+00  0.00000000E+00
  0.00000000E+00  0.00000000E+00  0.00000000E+00
  0.00000000E+00  0.00000000E+00  0.00000000E+00
  0.00000000E+00  0.00000000E+00  0.00000000E+00
  0.00000000E+00  0.00000000E+00  0.00000000E+00
  0.00000000E+00  0.00000000E+00  0.00000000E+00
  0.00000000E+00  0.00000000E+00  0.00000000E+00
  0.00000000E+00  0.00000000E+00  0.00000000E+00
  0.00000000E+00  0.00000000E+00  0.00000000E+00
  0.00000000E+00  0.00000000E+00  0.00000000E+00
  0.00000000E+00  0.00000000E+00  0.00000000E+00
