mp-560538_Na3AlS3 NEB_v2 image 06       
   1.0000000000000000     
    12.1828203277415312    0.0000000000000000    0.0000000000000007
    -0.0000000000000005    7.5674693205415418    1.1970639402156102
     0.0000000000000000    0.0113082934473333   13.7304524371335805
   Na   Al   S 
    23     8    24
Direct
  0.0044052137085444  0.9922581904725902  0.7467579149128909
  0.7637869907640109  0.9893897670951972  0.0028055037713060
  0.8240691470470338  0.4921946843389335  0.7514904978778958
  0.7520053218930514  0.9834118246840404  0.5145169523299842
  0.9522943005390232  0.1016250073755458  0.3359924231610947
  0.2402746210447191  0.5518752977854149  0.4797044192840971
  0.8230326392685967  0.5084032216297771  0.2504291386945567
  0.2419944765918700  0.0287410592188593  0.4950444708068460
  0.7504663363954336  0.4847261265699885  0.0078201820841812
  0.3874708395993949  0.3654365128687544  0.6564003708402737
  0.2570564419042114  0.5037977840333383  0.9920776374340576
  0.2495280865950207  0.0110656982851651  0.9914051791198304
  0.7469752462499315  0.4822937156648734  0.5123533444304442
  0.1814936319655160  0.4874276868745184  0.2460577085252851
  0.0305596045758350  0.9092529557075792  0.1753731417634157
  0.5451171410340194  0.5992814840669283  0.3310224463378972
  0.3148685646694034  0.9721623815921063  0.7569166310360558
  0.3189636427308074  0.9888249678346952  0.2494393156225883
  0.1666491194394268  0.5139313787706641  0.7528724846319435
  0.4733891660455996  0.4026312235872282  0.1791329286116792
  0.6883676911197654  0.0077747591170905  0.7518022019363926
  0.5232409414693606  0.5775002098004833  0.8053840202438778
  0.6785526628978289  0.0045963191656853  0.2475615267066189
  0.0060636627346682  0.3224764402688223  0.0738904195481140
  0.0099863302978918  0.3430534549049753  0.5746210885613152
  0.5084717634402551  0.1768854938366289  0.4287278094639646
  0.4976977259549713  0.8292152030485553  0.5729326017239771
  0.5065669069083043  0.1640880061149232  0.9244291072125250
  0.4962015768542685  0.8218570463207158  0.0723698640250134
  0.9923784851125674  0.6847453357488433  0.4297613646690621
  0.9968906958713433  0.6619180124661241  0.9296960737686391
  0.3559201997022114  0.3015495230107916  0.8592284239418646
  0.1667076525993636  0.2097601919411858  0.1286462429220663
  0.3618449815019105  0.3305558484251989  0.3672214747022622
  0.1518787335879281  0.7909390244394388  0.8711022978538452
  0.9944806917897751  0.6104722212765097  0.0998699221699226
  0.6446697847566654  0.6837546477324494  0.1405854903114800
  0.8307079713302130  0.7861357804696922  0.3722799983634673
  0.1348303895253551  0.8416933148069035  0.3600261850770679
  0.3385734422346118  0.7155865379472957  0.6305827649846591
  0.4997892217730779  0.8726435679581925  0.9030522193110428
  0.6649469738067566  0.2847133209627444  0.8719800239416031
  0.8596374917132721  0.1798986664538091  0.1443112513387135
  0.1684181851271660  0.2272673950218760  0.6360881786409678
  0.0144090585920438  0.3981037173660411  0.4041361168960833
  0.6486703497602804  0.6952951721111376  0.6372017961321887
  0.5014961002381639  0.1115055584113307  0.0947895269381149
  0.6668890706324433  0.2872649100399940  0.3669580319400012
  0.8569497264019788  0.2054186577106094  0.6322552964883812
  0.0005307965568235  0.6330284117707023  0.5981482342851550
  0.9996294531059959  0.3720480939751454  0.9058190827344177
  0.8418582514615380  0.7819846958837928  0.8669219666794277
  0.5137060885793190  0.1174605538779190  0.5976070440500720
  0.3385832117727929  0.7043257326739294  0.1319572837709444
  0.4916547890141061  0.8906808181470183  0.4028294988908883

             NaN             NaN             NaN
             NaN             NaN             NaN
             NaN             NaN             NaN
             NaN             NaN             NaN
             NaN             NaN             NaN
             NaN             NaN             NaN
             NaN             NaN             NaN
             NaN             NaN             NaN
             NaN             NaN             NaN
             NaN             NaN             NaN
             NaN             NaN             NaN
             NaN             NaN             NaN
             NaN             NaN             NaN
             NaN             NaN             NaN
             NaN             NaN             NaN
             NaN             NaN             NaN
             NaN             NaN             NaN
             NaN             NaN             NaN
             NaN             NaN             NaN
             NaN             NaN             NaN
             NaN             NaN             NaN
             NaN             NaN             NaN
             NaN             NaN             NaN
             NaN             NaN             NaN
             NaN             NaN             NaN
             NaN             NaN             NaN
             NaN             NaN             NaN
             NaN             NaN             NaN
             NaN             NaN             NaN
             NaN             NaN             NaN
             NaN             NaN             NaN
             NaN             NaN             NaN
             NaN             NaN             NaN
             NaN             NaN             NaN
             NaN             NaN             NaN
             NaN             NaN             NaN
             NaN             NaN             NaN
             NaN             NaN             NaN
             NaN             NaN             NaN
             NaN             NaN             NaN
             NaN             NaN             NaN
             NaN             NaN             NaN
             NaN             NaN             NaN
             NaN             NaN             NaN
             NaN             NaN             NaN
             NaN             NaN             NaN
             NaN             NaN             NaN
             NaN             NaN             NaN
             NaN             NaN             NaN
             NaN             NaN             NaN
             NaN             NaN             NaN
             NaN             NaN             NaN
             NaN             NaN             NaN
             NaN             NaN             NaN
             NaN             NaN             NaN
