mp-560538_Na3AlS3 NEB_v2 image 06
  1.0
     12.1828203277415312      0.0000000000000000      0.0000000000000007
     -0.0000000000000005      7.5674693205415418      1.1970639402156102
      0.0000000000000000      0.0113082934473333     13.7304524371335805
  Na  Al  S
  23  8  24
Direct
  0.0044052137085446  0.9922581904725891  0.7467579149128896
  0.7637869907640110  0.9893897670952007  0.0028055037713077
  0.8240691470470340  0.4921946843389328  0.7514904978778957
  0.7520053218930521  0.9834118246840432  0.5145169523299860
  0.9522943005390240  0.1016250073755479  0.3359924231610938
  0.2402746210447214  0.5518752977854177  0.4797044192841001
  0.8230326392685992  0.5084032216297779  0.2504291386945597
  0.2419944765918727  0.0287410592188575  0.4950444708068442
  0.7504663363954354  0.4847261265699920  0.0078201820841796
  0.3874708395993954  0.3654365128687572  0.6564003708402767
  0.2570564419042085  0.5037977840333367  0.9920776374340547
  0.2495280865950203  0.0110656982851643  0.9914051791198301
  0.7469752462499297  0.4822937156648718  0.5123533444304424
  0.1814936319655126  0.4874276868745192  0.2460577085252871
  0.0305596045758319  0.9092529557075767  0.1753731417634184
  0.5451171410340185  0.5992814840669252  0.3310224463378985
  0.3148685646694059  0.9721623815921072  0.7569166310360529
  0.3189636427308047  0.9888249678346945  0.2494393156225886
  0.1666491194394246  0.5139313787706635  0.7528724846319436
  0.4733891660455970  0.4026312235872285  0.1791329286116784
  0.6883676911197668  0.0077747591170882  0.7518022019363949
  0.5232409414693607  0.5775002098004867  0.8053840202438760
  0.6785526628978318  0.0045963191656848  0.2475615267066164
  0.0060636627346664  0.3224764402688212  0.0738904195481123
  0.0099863302978912  0.3430534549049772  0.5746210885613166
  0.5084717634402546  0.1768854938366279  0.4287278094639636
  0.4976977259549697  0.8292152030485546  0.5729326017239773
  0.5065669069083059  0.1640880061149220  0.9244291072125220
  0.4962015768542704  0.8218570463207150  0.0723698640250124
  0.9923784851125698  0.6847453357488420  0.4297613646690646
  0.9968906958713405  0.6619180124661268  0.9296960737686396
  0.3559201997022087  0.3015495230107923  0.8592284239418649
  0.1667076525993610  0.2097601919411892  0.1286462429220689
  0.3618449815019133  0.3305558484251982  0.3672214747022636
  0.1518787335879284  0.7909390244394366  0.8711022978538481
  0.9944806917897784  0.6104722212765101  0.0998699221699191
  0.6446697847566683  0.6837546477324504  0.1405854903114829
  0.8307079713302152  0.7861357804696953  0.3722799983634668
  0.1348303895253575  0.8416933148069002  0.3600261850770700
  0.3385734422346091  0.7155865379472929  0.6305827649846596
  0.4997892217730753  0.8726435679581952  0.9030522193110403
  0.6649469738067564  0.2847133209627426  0.8719800239416067
  0.8596374917132743  0.1798986664538059  0.1443112513387158
  0.1684181851271643  0.2272673950218750  0.6360881786409687
  0.0144090585920408  0.3981037173660417  0.4041361168960800
  0.6486703497602783  0.6952951721111346  0.6372017961321883
  0.5014961002381606  0.1115055584113315  0.0947895269381165
  0.6668890706324432  0.2872649100399947  0.3669580319400020
  0.8569497264019778  0.2054186577106096  0.6322552964883815
  0.0005307965568253  0.6330284117707010  0.5981482342851528
  0.9996294531059993  0.3720480939751432  0.9058190827344191
  0.8418582514615399  0.7819846958837934  0.8669219666794291
  0.5137060885793182  0.1174605538779160  0.5976070440500740
  0.3385832117727900  0.7043257326739271  0.1319572837709468
  0.4916547890141082  0.8906808181470199  0.4028294988908881
