Na4 Zn6 S8
1.0
   2.7445337432198760   -5.2782786521294787   -0.0000000001320298
   5.6979307304748987   -0.3899354139940591    6.4566868314535402
  -2.9533979322326895   -4.8883442206117929    6.4566868308389003
Na Zn S
4 6 8
direct
   0.7530064781070632    0.6226558157614266    0.3773441842385393 Na
   0.2469935218929362    0.3773441842385732    0.6226558157614608 Na
   0.7469935218988666    0.1226558157567472    0.8773441842429168 Na
   0.2530064781011334    0.8773441842432528    0.1226558157570832 Na
   0.7500000000091578    0.4570356099345062    0.0429643900676724 Zn
   0.2499999999908415    0.5429643900654938    0.9570356099323272 Zn
   0.7499999999908419    0.0429643900654938    0.4570356099323276 Zn
   0.2500000000000000    0.2500000000000000    0.2500000000000000 Zn
   0.7500000000000000    0.7500000000000000    0.7499999999999999 Zn
   0.2500000000091583    0.9570356099345062    0.5429643900676725 Zn
   0.0893172755546589    0.7694424888728343    0.5065880177596016 S
   0.5893172755587970    0.0065880177676179    0.2694424888601942 S
   0.1346522178111621    0.2694424888678123    0.0065880177642351 S
   0.9106827244453409    0.2305575111271660    0.4934119822403982 S
   0.3653477821847000    0.4934119822374040    0.2305575111351722 S
   0.4106827244412031    0.9934119822323821    0.7305575111398057 S
   0.8653477821888378    0.7305575111321879    0.9934119822357648 S
   0.6346522178152998    0.5065880177625960    0.7694424888648278 S
