pymatgen with grid density = 500 / number of atoms
0
Gamma
2 2 3
