Na8 Sn2 S8
1.0
   7.8196159700000001    0.0000000000000000    0.0000000000000005
  -0.0000000000000005    7.8196159700000001    0.0000000000000005
   0.0000000000000000    0.0000000000000000    6.9562125699999999
Na Sn S
8 2 8
direct
   0.1977810800000000    0.4061354400000000    0.0306745600000000 Na+
   0.5938645600000000    0.1977810800000000    0.9693254400000000 Na+
   0.4061354400000000    0.8022189199999999    0.9693254400000000 Na+
   0.8022189199999999    0.5938645600000000    0.0306745600000000 Na+
   0.6977810800000001    0.0938645600000000    0.4693254400000000 Na+
   0.3022189200000000    0.9061354400000000    0.4693254400000000 Na+
   0.9061354400000000    0.6977810800000001    0.5306745600000000 Na+
   0.0938645600000000    0.3022189200000000    0.5306745600000000 Na+
   0.0000000000000000    0.0000000000000000    0.0000000000000000 Sn4+
   0.5000000000000000    0.5000000000000000    0.5000000000000000 Sn4+
   0.2599621800000000    0.5929379700000000    0.6896560900000001 S2-
   0.7400378200000000    0.4070620300000000    0.6896560900000001 S2-
   0.0929379700000000    0.7599621800000000    0.1896560900000000 S2-
   0.2400378200000000    0.0929379700000000    0.8103439099999999 S2-
   0.7599621800000000    0.9070620300000000    0.8103439099999999 S2-
   0.9070620300000000    0.2400378200000000    0.1896560900000000 S2-
   0.5929379700000000    0.7400378200000000    0.3103439100000000 S2-
   0.4070620300000000    0.2599621800000000    0.3103439100000000 S2-
