S28                                     
   1.0000000000000000     
     0.0000000000000000   10.4229058945680961   -0.1851790774482918
     8.1828593913198375    0.0000000000000000    0.0000000000000000
     0.0000000000000000   -1.9221660644986345  -10.2088221948837585
   S 
    28
Direct
  0.8908980020048745  0.9249748187997753  0.6834723753555352
  0.3362026727167091  0.3834984194724456  0.5452606283509738
  0.9172840858557407  0.2145877441584361  0.9256430035387027
  0.2437183772028462  0.6071665693884469  0.7793532363351829
  0.1350342823894124  0.6048337377590229  0.2227946771914446
  0.8649657176105876  0.3951662622409771  0.7772053228085554
  0.7562816227971538  0.3928334306115531  0.2206467636648171
  0.1637973272832909  0.8834984194724456  0.4547393716490262
  0.4172840858557407  0.2854122558415639  0.9256430035387027
  0.3908980020048745  0.5750251812002247  0.6834723753555352
  0.6350342823894124  0.8951662622409771  0.2227946771914446
  0.8362026727167091  0.1165015805275544  0.5452606283509738
  0.2562816227971538  0.1071665693884469  0.2206467636648171
  0.6091019979951255  0.4249748187997753  0.3165276246444648
  0.1091019979951255  0.0750251812002247  0.3165276246444648
  0.0505880535502286  0.6920346911483151  0.3738292230660676
  0.7398094833045405  0.5822434347240772  0.0644566061494700
  0.5827159141442593  0.7145877441584361  0.0743569964613044
  0.2601905166954595  0.4177565652759228  0.9355433938505300
  0.0827159141442593  0.7854122558415639  0.0743569964613044
  0.4494119464497714  0.1920346911483151  0.6261707769339324
  0.3649657176105876  0.1048337377590229  0.7772053228085554
  0.7437183772028462  0.8928334306115531  0.7793532363351829
  0.9494119464497714  0.3079653088516849  0.6261707769339324
  0.2398094833045405  0.9177565652759228  0.0644566061494700
  0.7601905166954595  0.0822434347240772  0.9355433938505300
  0.5505880535502286  0.8079653088516849  0.3738292230660676
  0.6637973272832909  0.6165015805275544  0.4547393716490262

  0.00000000E+00  0.00000000E+00  0.00000000E+00
  0.00000000E+00  0.00000000E+00  0.00000000E+00
  0.00000000E+00  0.00000000E+00  0.00000000E+00
  0.00000000E+00  0.00000000E+00  0.00000000E+00
  0.00000000E+00  0.00000000E+00  0.00000000E+00
  0.00000000E+00  0.00000000E+00  0.00000000E+00
  0.00000000E+00  0.00000000E+00  0.00000000E+00
  0.00000000E+00  0.00000000E+00  0.00000000E+00
  0.00000000E+00  0.00000000E+00  0.00000000E+00
  0.00000000E+00  0.00000000E+00  0.00000000E+00
  0.00000000E+00  0.00000000E+00  0.00000000E+00
  0.00000000E+00  0.00000000E+00  0.00000000E+00
  0.00000000E+00  0.00000000E+00  0.00000000E+00
  0.00000000E+00  0.00000000E+00  0.00000000E+00
  0.00000000E+00  0.00000000E+00  0.00000000E+00
  0.00000000E+00  0.00000000E+00  0.00000000E+00
  0.00000000E+00  0.00000000E+00  0.00000000E+00
  0.00000000E+00  0.00000000E+00  0.00000000E+00
  0.00000000E+00  0.00000000E+00  0.00000000E+00
  0.00000000E+00  0.00000000E+00  0.00000000E+00
  0.00000000E+00  0.00000000E+00  0.00000000E+00
  0.00000000E+00  0.00000000E+00  0.00000000E+00
  0.00000000E+00  0.00000000E+00  0.00000000E+00
  0.00000000E+00  0.00000000E+00  0.00000000E+00
  0.00000000E+00  0.00000000E+00  0.00000000E+00
  0.00000000E+00  0.00000000E+00  0.00000000E+00
  0.00000000E+00  0.00000000E+00  0.00000000E+00
  0.00000000E+00  0.00000000E+00  0.00000000E+00
