ALGO = Fast
EDIFF = 0.0014
ENCUT = 520
ISTART = 0
#ICHARG = 0
IBRION = -1
ISIF = 3
ISMEAR = 0
ISPIN = 2
LASPH = True
#LORBIT = 11
LCHARG = True
LREAL = Auto
LWAVE = False
MAGMOM = 28*0.6
NELM = 100
NSW = 99
PREC = Accurate
SIGMA = 0.05
