ALGO = Fast
EDIFF = 0.0014
ENCUT = 520
#ISTART = O
#ICHARG = 0
IBRION = 2
ISIF = 3
ISMEAR = 0
ISPIN = 2
LASPH = True
#LORBIT = 11
LREAL = Auto
LWAVE = False
MAGMOM = 28*0.6
NELM = 100
NSW = 99
PREC = Accurate
SIGMA = 0.05
