S28
1.0
   0.0000000000000000    9.7146829157349988    0.0000000000000000
   7.8826375100000003    0.0000000000000000    0.0000000000000000
   0.0000000000000000   -1.9650428722288855   -9.7502629241595660
S
28
direct
   0.8954255100000000    0.9185495200000000    0.6828867599999999 S
   0.3337481200000000    0.3858974900000000    0.5381524799999999 S
   0.9236567400000000    0.2171440000000000    0.9325771899999999 S
   0.2372681300000000    0.6147556300000000    0.7782563000000000 S
   0.1354489100000000    0.5976024500000000    0.2223347900000000 S
   0.8645510900000000    0.4023975500000000    0.7776652100000000 S
   0.7627318700000000    0.3852443700000000    0.2217437000000000 S
   0.1662518800000000    0.8858974900000001    0.4618475200000001 S
   0.4236567400000000    0.2828560000000000    0.9325771899999999 S
   0.3954255100000000    0.5814504800000000    0.6828867599999999 S
   0.6354489100000000    0.9023975500000000    0.2223347900000000 S
   0.8337481200000001    0.1141025100000000    0.5381524799999999 S
   0.2627318700000000    0.1147556300000000    0.2217437000000000 S
   0.6045744900000001    0.4185495200000000    0.3171132400000001 S
   0.1045744900000000    0.0814504800000000    0.3171132400000001 S
   0.0458385800000000    0.6865904400000000    0.3775316600000000 S
   0.7451991700000000    0.5806212300000000    0.0605409000000000 S
   0.5763432600000000    0.7171440000000000    0.0674228100000001 S
   0.2548008300000000    0.4193787700000000    0.9394591000000000 S
   0.0763432600000000    0.7828560000000000    0.0674228100000001 S
   0.4541614200000000    0.1865904400000000    0.6224683400000000 S
   0.3645510900000000    0.0976024500000000    0.7776652100000000 S
   0.7372681299999999    0.8852443700000000    0.7782563000000000 S
   0.9541614200000000    0.3134095600000000    0.6224683400000000 S
   0.2451991700000000    0.9193787700000000    0.0605409000000000 S
   0.7548008300000000    0.0806212300000000    0.9394591000000000 S
   0.5458385799999999    0.8134095600000000    0.3775316600000000 S
   0.6662518800000000    0.6141025100000000    0.4618475200000001 S
