&Control
	calculation = 'relax'
	prefix = 'pfoa'
/
&System
	ibrav = 1
	A = 20
	nat = 26
	ntyp = 4
	ecutwfc = 49
	ecutrho = 316
/

&Electrons
/
&Ions
/
ATOMIC_SPECIES
	C 12.01 C.pbe-n-kjpaw_psl.1.0.0.UPF
	H 1.00 H.pbe-kjpaw_psl.1.0.0.UPF
	O 16.01 O.pbe-n-kjpaw_psl.1.0.0.UPF
	F 18.99 F.pbe-n-kjpaw_psl.1.0.0.UPF
ATOMIC_POSITIONS angstrom
F	8.3383	7.6665	8.0913
F	8.3383	7.6665	5.9087
F	5.7826	6.4207	5.9096
F	5.7826	6.4207	8.0904
F	7.9816	4.8526	5.9074
F	7.9816	4.8526	8.0926
F	6.1357	9.2372	8.098
F	6.1357	9.2372	5.902
F	10.5547	6.0772	5.9071
F	10.5547	6.0772	8.0929
F	3.5782	8.0243	8.1017
F	3.5782	8.0243	5.8983
F	11.9867	3.9782	7
F	10.2351	3.2531	8.1059
F	10.2351	3.2531	5.8941
O	2.3153	10.1848	7
O	4.2001	11.0288	7
C	7.8455	6.9854	7
C	6.2778	7.1014	7
C	8.4635	5.5399	7
C	5.6634	8.5491	7
C	10.0277	5.4228	7
C	4.1003	8.6666	7
C	10.6117	3.9767	7
C	3.5279	10.0079	7
H	1.7677	9.4953	7
K_POINTS gamma

