Na1 Sb1 S1                              
   1.0000000000000000     
     3.9279856389611605    1.9794077601411544    0.0000000000000000
     1.1486597128173734    7.4773750676445072    0.0000000000000000
     0.0000000000000000    0.0000000000000000    3.5889666151544972
   Na   Sb   S 
     1     1     1
Direct
  0.0391271979304317  0.8371369837052509  0.0000000000000000
  0.9279845241957256  0.4485807240943115 -0.0000000000000000
  0.3049154580446875  0.0718549550773636 -0.0000000000000000

  0.00000000E+00  0.00000000E+00  0.00000000E+00
  0.00000000E+00  0.00000000E+00  0.00000000E+00
  0.00000000E+00  0.00000000E+00  0.00000000E+00
