Na1 Sb1 S1
1.0
   3.8838548430259086    1.9555202708931896    0.0000000000000000
   1.1052844304998688    7.4476217800682152    0.0000000000000000
   0.0000000000000000    0.0000000000000000    3.5037497170893008
Na Sb S
1 1 1
direct
   0.0390089284924312   -0.1625840220454737    0.0000000000000000 Na
  -0.0730487237494757    0.4492768549947974    0.0000000000000000 Sb
   0.3060669754278896    0.0708798299275953    0.0000000000000000 S
