Li56 La24 Zr16 O96
1.0
13.236069 0.000000 0.000000
0.000000 13.236069 0.000000
0.000000 0.000000 12.701707
Li La Zr O
56 24 16 96
direct
0.080516 0.162466 0.930857 Li
0.662466 0.919484 0.680857 Li
0.419484 0.337534 0.430857 Li
0.337534 0.080516 0.680857 Li
0.080516 0.337534 0.819143 Li
0.162466 0.080516 0.569143 Li
0.919484 0.662466 0.819143 Li
0.337534 0.419484 0.069143 Li
0.419484 0.837534 0.819143 Li
0.337534 0.580516 0.569143 Li
0.580516 0.162466 0.819143 Li
0.162466 0.919484 0.069143 Li
0.919484 0.162466 0.430857 Li
0.837534 0.419484 0.680857 Li
0.580516 0.337534 0.930857 Li
0.162466 0.580516 0.680857 Li
0.580516 0.662466 0.430857 Li
0.162466 0.419484 0.180857 Li
0.919484 0.837534 0.930857 Li
0.837534 0.580516 0.180857 Li
0.580516 0.837534 0.319143 Li
0.662466 0.580516 0.069143 Li
0.419484 0.162466 0.319143 Li
0.837534 0.919484 0.569143 Li
0.919484 0.337534 0.319143 Li
0.837534 0.080516 0.069143 Li
0.080516 0.662466 0.319143 Li
0.662466 0.419484 0.569143 Li
0.419484 0.662466 0.930857 Li
0.337534 0.919484 0.180857 Li
0.080516 0.837534 0.430857 Li
0.662466 0.080516 0.180857 Li
0.181211 0.181211 0.750000 Li
0.681211 0.818789 0.500000 Li
0.318789 0.318789 0.250000 Li
0.318789 0.181211 0.500000 Li
0.181211 0.318789 0.000000 Li
0.818789 0.681211 0.000000 Li
0.318789 0.818789 0.000000 Li
0.318789 0.681211 0.750000 Li
0.681211 0.181211 0.000000 Li
0.181211 0.818789 0.250000 Li
0.818789 0.181211 0.250000 Li
0.818789 0.318789 0.500000 Li
0.681211 0.318789 0.750000 Li
0.181211 0.681211 0.500000 Li
0.681211 0.681211 0.250000 Li
0.818789 0.818789 0.750000 Li
0.000000 0.000000 0.000000 Li
0.500000 0.000000 0.750000 Li
0.500000 0.500000 0.500000 Li
0.000000 0.500000 0.750000 Li
0.000000 0.000000 0.500000 Li
0.500000 0.500000 0.000000 Li
0.000000 0.500000 0.250000 Li
0.500000 0.000000 0.250000 Li
0.127370 0.750000 0.875000 La
0.250000 0.872630 0.625000 La
0.372630 0.750000 0.375000 La
0.750000 0.127370 0.625000 La
0.872630 0.250000 0.875000 La
0.750000 0.372630 0.125000 La
0.372630 0.250000 0.875000 La
0.750000 0.627370 0.625000 La
0.627370 0.750000 0.875000 La
0.750000 0.872630 0.125000 La
0.872630 0.750000 0.375000 La
0.250000 0.372630 0.625000 La
0.627370 0.250000 0.375000 La
0.250000 0.627370 0.125000 La
0.250000 0.127370 0.125000 La
0.127370 0.250000 0.375000 La
0.000000 0.000000 0.250000 La
0.500000 0.000000 0.000000 La
0.500000 0.500000 0.750000 La
0.000000 0.500000 0.500000 La
0.500000 0.000000 0.500000 La
0.500000 0.500000 0.250000 La
0.000000 0.000000 0.750000 La
0.000000 0.500000 0.000000 La
0.000000 0.250000 0.125000 Zr
0.750000 0.000000 0.875000 Zr
0.500000 0.250000 0.625000 Zr
0.250000 0.000000 0.875000 Zr
0.000000 0.250000 0.625000 Zr
0.250000 0.000000 0.375000 Zr
0.000000 0.750000 0.625000 Zr
0.250000 0.500000 0.875000 Zr
0.500000 0.750000 0.625000 Zr
0.250000 0.500000 0.375000 Zr
0.750000 0.500000 0.875000 Zr
0.500000 0.250000 0.125000 Zr
0.000000 0.750000 0.125000 Zr
0.750000 0.500000 0.375000 Zr
0.500000 0.750000 0.125000 Zr
0.750000 0.000000 0.375000 Zr
0.034616 0.194517 0.778704 O
0.694517 0.965384 0.528704 O
0.465384 0.305483 0.278704 O
0.305483 0.034616 0.528704 O
0.034616 0.305483 0.971296 O
0.194517 0.034616 0.721296 O
0.965384 0.694517 0.971296 O
0.305483 0.465384 0.221296 O
0.465384 0.805483 0.971296 O
0.305483 0.534616 0.721296 O
0.534616 0.194517 0.971296 O
0.194517 0.965384 0.221296 O
0.965384 0.194517 0.278704 O
0.805483 0.465384 0.528704 O
0.534616 0.305483 0.778704 O
0.194517 0.534616 0.528704 O
0.534616 0.694517 0.278704 O
0.194517 0.465384 0.028704 O
0.965384 0.805483 0.778704 O
0.805483 0.534616 0.028704 O
0.534616 0.805483 0.471296 O
0.694517 0.534616 0.221296 O
0.465384 0.194517 0.471296 O
0.805483 0.965384 0.721296 O
0.965384 0.305483 0.471296 O
0.805483 0.034616 0.221296 O
0.034616 0.694517 0.471296 O
0.694517 0.465384 0.721296 O
0.465384 0.694517 0.778704 O
0.305483 0.965384 0.028704 O
0.034616 0.805483 0.278704 O
0.694517 0.034616 0.028704 O
0.054963 0.102443 0.090667 O
0.602443 0.945037 0.840667 O
0.445037 0.397557 0.590667 O
0.397557 0.054963 0.840667 O
0.054963 0.397557 0.659333 O
0.102443 0.054963 0.409333 O
0.945037 0.602443 0.659333 O
0.397557 0.445037 0.909333 O
0.445037 0.897557 0.659333 O
0.397557 0.554963 0.409333 O
0.554963 0.102443 0.659333 O
0.102443 0.945037 0.909333 O
0.945037 0.102443 0.590667 O
0.897557 0.445037 0.840667 O
0.554963 0.397557 0.090667 O
0.102443 0.554963 0.840667 O
0.554963 0.602443 0.590667 O
0.102443 0.445037 0.340667 O
0.945037 0.897557 0.090667 O
0.897557 0.554963 0.340667 O
0.554963 0.897557 0.159333 O
0.602443 0.554963 0.909333 O
0.445037 0.102443 0.159333 O
0.897557 0.945037 0.409333 O
0.945037 0.397557 0.159333 O
0.897557 0.054963 0.909333 O
0.054963 0.602443 0.159333 O
0.602443 0.445037 0.409333 O
0.445037 0.602443 0.090667 O
0.397557 0.945037 0.340667 O
0.054963 0.897557 0.590667 O
0.602443 0.054963 0.340667 O
0.150823 0.223227 0.571236 O
0.723227 0.849177 0.321236 O
0.349177 0.276773 0.071236 O
0.276773 0.150823 0.321236 O
0.150823 0.276773 0.178764 O
0.223227 0.150823 0.928764 O
0.849177 0.723227 0.178764 O
0.276773 0.349177 0.428764 O
0.349177 0.776773 0.178764 O
0.276773 0.650823 0.928764 O
0.650823 0.223227 0.178764 O
0.223227 0.849177 0.428764 O
0.849177 0.223227 0.071236 O
0.776773 0.349177 0.321236 O
0.650823 0.276773 0.571236 O
0.223227 0.650823 0.321236 O
0.650823 0.723227 0.071236 O
0.223227 0.349177 0.821236 O
0.849177 0.776773 0.571236 O
0.776773 0.650823 0.821236 O
0.650823 0.776773 0.678764 O
0.723227 0.650823 0.428764 O
0.349177 0.223227 0.678764 O
0.776773 0.849177 0.928764 O
0.849177 0.276773 0.678764 O
0.776773 0.150823 0.428764 O
0.150823 0.723227 0.678764 O
0.723227 0.349177 0.928764 O
0.349177 0.723227 0.571236 O
0.276773 0.849177 0.821236 O
0.150823 0.776773 0.071236 O
0.723227 0.150823 0.821236 O
