Na1 Zn1 S2                              
   1.0000000000000000     
     1.7694950059074925    1.0216184179308774    6.9720845474342692
    -1.7694950059074925    1.0216184179308774    6.9720845474342692
    -0.0000000000000000   -2.0432368359646897    6.9720845474346422
   Na   Zn   S 
     1     1     2
Direct
  0.1652416224838563  0.1652416224838563  0.1652408052447728
  0.9979426744764603  0.9979426744764603  0.9979377680805308
  0.5961675325327430  0.5961675325327430  0.5961646103295063
  0.4006519045867131  0.4006519045867131  0.4006499294232775

  0.00000000E+00  0.00000000E+00  0.00000000E+00
  0.00000000E+00  0.00000000E+00  0.00000000E+00
  0.00000000E+00  0.00000000E+00  0.00000000E+00
  0.00000000E+00  0.00000000E+00  0.00000000E+00
