Na Al S                                 
   1.0000000000000000     
    12.1026382039385112    0.0000000000000000    0.0000000000000007
    -0.0000000000000004    7.0938170788834114    0.0000000000000004
     0.0000000000000000    0.0000000000000000   21.6510149562332330
   Na   Al   S 
    39     8    32
Direct
  0.3478912546604249  0.9077969298345394  0.4986275568001872
  0.6463994741303907  0.4067985878163469  0.9986014581935549
  0.1598288736971298  0.0963016628965221  0.9957014273664200
  0.1521921528982304  0.4080535940397567  0.4986410938295549
  0.3383858953107293  0.5930235851910197  0.9945747560643881
  0.6519832009032811  0.0908264157072551  0.5012137047930665
  0.8479554464689585  0.5908777244469405  0.5012155672217418
  0.8547424501109546  0.9056396438055074  0.9989139761530126
  0.2878011373019831  0.5508240968069060  0.3626574743517210
  0.7139876084659491  0.0489009599084227  0.1359287214290603
  0.2572432095482071  0.7481963867129693  0.8652715557417636
  0.2121515980162840  0.0508400889107463  0.3626706942960922
  0.7124696938263142  0.4483138885355658  0.6379845619261459
  0.7875396163563977  0.9483760523377853  0.6380401058864322
  0.7859835749851456  0.5491524488095791  0.1355859755121998
  0.5526284787061613  0.5611744875449958  0.4348107139652555
  0.4494612280326038  0.0587642362540137  0.0666958940975846
  0.9537401873311779  0.4402582884421236  0.9342708850764225
  0.9473739186000074  0.0611662197105716  0.4348914990893675
  0.5490447455393976  0.9394074025396435  0.9345957121588100
  0.4464501357753363  0.4374919901123562  0.5659388625789958
  0.0537600256406137  0.9375404164557324  0.5660564722065473
  0.0510521521769078  0.5595232339086920  0.0669605776096773
  0.5837021016471269  0.3844955115491757  0.2530058675557925
  0.4156913840499215  0.8834461950775889  0.2467875577424437
  0.9175488834632617  0.6174257754927694  0.7527652741868849
  0.9161933881006519  0.8845584722158648  0.2530227828048837
  0.5818690909850233  0.1165429976715728  0.7528087224578073
  0.4051680988128297  0.6313847683840308  0.7512884872298855
  0.0954658900336298  0.1365860989176753  0.7518015021105384
  0.0844014214458824  0.3835519411417607  0.2468530361244348
  0.8357561219640814  0.1043587545581843  0.8308727027792884
  0.1636403887250069  0.6084668496915100  0.6691095583460509
  0.6639346314565273  0.8928316102715144  0.3304350769962667
  0.6637115842615486  0.6040737459430829  0.8306187914456444
  0.8359987721118358  0.3930063044661836  0.3303370559922314
  0.1639546699022389  0.8913065649952827  0.1684145692089416
  0.3365419815707824  0.3910725770493713  0.1683867865383064
  0.3360287316693586  0.1076047688010675  0.6689578125755702
  0.0437383058327541  0.8317291662030826  0.8741624906113117
  0.9597742880877078  0.3318547426183471  0.6258915493305395
  0.4590251113805195  0.1666097873720460  0.3741938891773060
  0.4544590263752184  0.3328489488059247  0.8740998080440363
  0.0409390083475714  0.6666181349399523  0.3741965392544770
  0.9592808594604207  0.1659766030627594  0.1248879067627442
  0.5409990670123932  0.6654986884883343  0.1249065173856252
  0.5401995847806660  0.8316927451218348  0.6258173052344631
  0.3753124002460737  0.2110582421595311  0.9605594040296239
  0.6306648540257953  0.7067765785798557  0.5426403790422825
  0.1304996968378660  0.7917198868471047  0.4575936252841331
  0.1240839960632485  0.7153137777693743  0.9609802809691530
  0.3694603825021048  0.2916606181980441  0.4575908921208907
  0.6322897036086275  0.7898809790100572  0.0420316779913392
  0.8690723601884258  0.2901478530261414  0.0416051084640614
  0.8692307284042968  0.2066940895935971  0.5427810740671433
  0.4475222278658890  0.8486511220958448  0.3767895048058776
  0.5543582676640000  0.3478816406495113  0.1233001260410660
  0.0505724111140538  0.1472255885869487  0.8786274077177012
  0.0523935975083916  0.3486454492062592  0.3768124671807200
  0.4494920236009960  0.6490657070512071  0.8783982323211603
  0.5530730924701999  0.1497460587100363  0.6229075836179234
  0.9467848427738588  0.6498601048851711  0.6228846393189187
  0.9459700657328582  0.8483751743875771  0.1234839196332160
  0.1407528171306609  0.2465416880207556  0.6233824957572693
  0.8622594752282566  0.7394572051492290  0.8742212373880278
  0.3603078863525440  0.7524244129427942  0.1233226811512083
  0.3592281481979214  0.7459540236802127  0.6233208981539491
  0.1399581641064955  0.2531461430551047  0.1235405535441885
  0.8601286303519657  0.7548745965261929  0.3760795572703941
  0.6398594875561301  0.2548082919589874  0.3760773178511698
  0.6364687832740756  0.2407704005572882  0.8739672469810458
  0.6307060122465771  0.7576933023747188  0.2129011105309431
  0.3690311185478734  0.2573829905435545  0.2863339600441464
  0.8719946700019534  0.2422250390674705  0.7140480738475929
  0.8692781902145938  0.2582409263419621  0.2127167946353694
  0.6281541955821979  0.7418925198343445  0.7138673310603494
  0.3667518482669365  0.2461951404705331  0.7858054575270472
  0.1327383865575911  0.7490779104786611  0.7859191635300888
  0.1309205767772355  0.7574639396102398  0.2863348934279699

             NaN             NaN             NaN
             NaN             NaN             NaN
             NaN             NaN             NaN
             NaN             NaN             NaN
             NaN             NaN             NaN
             NaN             NaN             NaN
             NaN             NaN             NaN
             NaN             NaN             NaN
             NaN             NaN             NaN
             NaN             NaN             NaN
             NaN             NaN             NaN
             NaN             NaN             NaN
             NaN             NaN             NaN
             NaN             NaN             NaN
             NaN             NaN             NaN
             NaN             NaN             NaN
             NaN             NaN             NaN
             NaN             NaN             NaN
             NaN             NaN             NaN
             NaN             NaN             NaN
             NaN             NaN             NaN
             NaN             NaN             NaN
             NaN             NaN             NaN
             NaN             NaN             NaN
             NaN             NaN             NaN
             NaN             NaN             NaN
             NaN             NaN             NaN
             NaN             NaN             NaN
             NaN             NaN             NaN
             NaN             NaN             NaN
             NaN             NaN             NaN
             NaN             NaN             NaN
             NaN             NaN             NaN
             NaN             NaN             NaN
             NaN             NaN             NaN
             NaN             NaN             NaN
             NaN             NaN             NaN
             NaN             NaN             NaN
             NaN             NaN             NaN
             NaN             NaN             NaN
             NaN             NaN             NaN
             NaN             NaN             NaN
             NaN             NaN             NaN
             NaN             NaN             NaN
             NaN             NaN             NaN
             NaN             NaN             NaN
             NaN             NaN             NaN
             NaN             NaN             NaN
             NaN             NaN             NaN
             NaN             NaN             NaN
             NaN             NaN             NaN
             NaN             NaN             NaN
             NaN             NaN             NaN
             NaN             NaN             NaN
             NaN             NaN             NaN
             NaN             NaN             NaN
             NaN             NaN             NaN
             NaN             NaN             NaN
             NaN             NaN             NaN
             NaN             NaN             NaN
             NaN             NaN             NaN
             NaN             NaN             NaN
             NaN             NaN             NaN
             NaN             NaN             NaN
             NaN             NaN             NaN
             NaN             NaN             NaN
             NaN             NaN             NaN
             NaN             NaN             NaN
             NaN             NaN             NaN
             NaN             NaN             NaN
             NaN             NaN             NaN
             NaN             NaN             NaN
             NaN             NaN             NaN
             NaN             NaN             NaN
             NaN             NaN             NaN
             NaN             NaN             NaN
             NaN             NaN             NaN
             NaN             NaN             NaN
             NaN             NaN             NaN
