Na5AlS4 bottleneck NEB image 06
  1.0
     12.1026382039385112      0.0000000000000000      0.0000000000000007
     -0.0000000000000004      7.0938170788834114      0.0000000000000004
      0.0000000000000000      0.0000000000000000     21.6510149562332330
  Na  Al  S
  39  8  32
Direct
  0.3478912546604256  0.9077969298345413  0.4986275568001837
  0.6463994741303914  0.4067985878163436  0.9986014581935518
  0.1598288736971308  0.0963016628965244  0.9957014273664205
  0.1521921528982327  0.4080535940397572  0.4986410938295523
  0.3383858953107293  0.5930235851910217  0.9945747560643898
  0.6519832009032777  0.0908264157072585  0.5012137047930634
  0.8479554464689586  0.5908777244469420  0.5012155672217407
  0.8547424501109548  0.9056396438055071  0.9989139761530099
  0.2878011373019830  0.5508240968069058  0.3626574743517239
  0.7139876084659507  0.0489009599084214  0.1359287214290610
  0.2127945305447062  0.2100125114878115  0.1638319222871978
  0.2566002770197834  0.9890239641359005  0.0641103277506538
  0.7124696938263135  0.4483138885355684  0.6379845619261429
  0.7875396163563971  0.9483760523377838  0.6380401058864327
  0.7859835749851449  0.5491524488095766  0.1355859755121974
  0.5526284787061606  0.5611744875449938  0.4348107139652542
  0.4494612280326035  0.0587642362540149  0.0666958940975867
  0.9537401873311795  0.4402582884421271  0.9342708850764230
  0.9473739186000050  0.0611662197105729  0.4348914990893656
  0.5490447455394002  0.9394074025396438  0.9345957121588129
  0.4464501357753362  0.4374919901123596  0.5659388625789924
  0.0537600256406161  0.9375404164557350  0.5660564722065501
  0.0510521521769067  0.5595232339086922  0.0669605776096773
  0.5837021016471264  0.3844955115491757  0.2530058675557924
  0.4156913840499217  0.8834461950775878  0.2467875577424429
  0.9175488834632629  0.6174257754927696  0.7527652741868850
  0.9161933881006525  0.8845584722158663  0.2530227828048854
  0.5818690909850235  0.1165429976715714  0.7528087224578087
  0.4051680988128312  0.6313847683840282  0.7512884872298877
  0.0954658900336311  0.1365860989176751  0.7518015021105380
  0.0844014214458847  0.3835519411417637  0.2468530361244343
  0.8357561219640841  0.1043587545581866  0.8308727027792890
  0.1636403887250103  0.6084668496915103  0.6691095583460490
  0.6639346314565299  0.8928316102715167  0.3304350769962636
  0.6637115842615471  0.6040737459430812  0.8306187914456424
  0.8359987721118328  0.3930063044661824  0.3303370559922331
  0.1639546699022385  0.8913065649952808  0.1684145692089417
  0.3365419815707855  0.3910725770493709  0.1683867865383090
  0.3360287316693569  0.1076047688010649  0.6689578125755669
  0.0437383058327511  0.8317291662030809  0.8741624906113141
  0.9597742880877076  0.3318547426183483  0.6258915493305417
  0.4590251113805210  0.1666097873720466  0.3741938891773066
  0.4544590263752166  0.3328489488059237  0.8740998080440345
  0.0409390083475722  0.6666181349399493  0.3741965392544772
  0.9592808594604225  0.1659766030627622  0.1248879067627420
  0.5409990670123962  0.6654986884883345  0.1249065173856246
  0.5401995847806628  0.8316927451218349  0.6258173052344653
  0.3753124002460749  0.2110582421595276  0.9605594040296220
  0.6306648540257944  0.7067765785798570  0.5426403790422825
  0.1304996968378679  0.7917198868471061  0.4575936252841361
  0.1240839960632494  0.7153137777693709  0.9609802809691544
  0.3694603825021060  0.2916606181980473  0.4575908921208917
  0.6322897036086291  0.7898809790100592  0.0420316779913419
  0.8690723601884229  0.2901478530261424  0.0416051084640644
  0.8692307284042993  0.2066940895935939  0.5427810740671409
  0.4475222278658919  0.8486511220958429  0.3767895048058767
  0.5543582676639981  0.3478816406495124  0.1233001260410682
  0.0505724111140546  0.1472255885869466  0.8786274077177009
  0.0523935975083931  0.3486454492062592  0.3768124671807227
  0.4494920236009965  0.6490657070512095  0.8783982323211581
  0.5530730924702023  0.1497460587100368  0.6229075836179268
  0.9467848427738582  0.6498601048851703  0.6228846393189186
  0.9459700657328562  0.8483751743875738  0.1234839196332145
  0.1407528171306623  0.2465416880207559  0.6233824957572710
  0.8622594752282540  0.7394572051492260  0.8742212373880299
  0.3603078863525447  0.7524244129427944  0.1233226811512048
  0.3592281481979193  0.7459540236802147  0.6233208981539523
  0.1399581641064939  0.2531461430551068  0.1235405535441873
  0.8601286303519692  0.7548745965261926  0.3760795572703918
  0.6398594875561282  0.2548082919589847  0.3760773178511681
  0.6364687832740769  0.2407704005572885  0.8739672469810430
  0.6307060122465784  0.7576933023747168  0.2129011105309447
  0.3690311185478702  0.2573829905435567  0.2863339600441461
  0.8719946700019556  0.2422250390674681  0.7140480738475897
  0.8692781902145955  0.2582409263419642  0.2127167946353665
  0.6281541955821963  0.7418925198343418  0.7138673310603459
  0.3667518482669397  0.2461951404705321  0.7858054575270442
  0.1327383865575881  0.7490779104786575  0.7859191635300907
  0.1309205767772375  0.7574639396102431  0.2863348934279695
