generated by phonopy                    
   1.0000000000000000     
     6.7666934128909020  -11.7202567903686869    0.0000000000000000
     6.7666934128909020   11.7202567903686869    0.0000000000000000
     0.0000000000000000    0.0000000000000000   10.2925965411765397
   Na   S 
    36    36
Direct
  0.0005881436174704  0.0000000000000000  0.0005881436174704
  0.3333333333333357  0.0000000000000000  0.0000000000000000
  0.6666666666666643  0.0000000000000000  0.0000000000000000
  0.0000000000000000  0.3333333333333357  0.0000000000000000
  0.3333333333333357  0.3333333333333357  0.0000000000000000
  0.6666666666666643  0.3333333333333357  0.0000000000000000
  0.0000000000000000  0.6666666666666643  0.0000000000000000
  0.3333333333333357  0.6666666666666643  0.0000000000000000
  0.6666666666666643  0.6666666666666643  0.0000000000000000
  0.0000000000000000  0.0000000000000000  0.5000000000000000
  0.3333333333333357  0.0000000000000000  0.5000000000000000
  0.6666666666666643  0.0000000000000000  0.5000000000000000
  0.0000000000000000  0.3333333333333357  0.5000000000000000
  0.3333333333333357  0.3333333333333357  0.5000000000000000
  0.6666666666666643  0.3333333333333357  0.5000000000000000
  0.0000000000000000  0.6666666666666643  0.5000000000000000
  0.3333333333333357  0.6666666666666643  0.5000000000000000
  0.6666666666666643  0.6666666666666643  0.5000000000000000
  0.1111111111111143  0.2222222222222214  0.2500000000000000
  0.4444444444444429  0.2222222222222214  0.2500000000000000
  0.7777777777777786  0.2222222222222214  0.2500000000000000
  0.1111111111111143  0.5555555555555571  0.2500000000000000
  0.4444444444444429  0.5555555555555571  0.2500000000000000
  0.7777777777777786  0.5555555555555571  0.2500000000000000
  0.1111111111111143  0.8888888888888857  0.2500000000000000
  0.4444444444444429  0.8888888888888857  0.2500000000000000
  0.7777777777777786  0.8888888888888857  0.2500000000000000
  0.2222222222222214  0.1111111111111143  0.7500000000000000
  0.5555555555555571  0.1111111111111143  0.7500000000000000
  0.8888888888888857  0.1111111111111143  0.7500000000000000
  0.2222222222222214  0.4444444444444429  0.7500000000000000
  0.5555555555555571  0.4444444444444429  0.7500000000000000
  0.8888888888888857  0.4444444444444429  0.7500000000000000
  0.2222222222222214  0.7777777777777786  0.7500000000000000
  0.5555555555555571  0.7777777777777786  0.7500000000000000
  0.8888888888888857  0.7777777777777786  0.7500000000000000
  0.1111111111111143  0.2222222222222214  0.6446151053984437
  0.4444444444444429  0.2222222222222214  0.6446151053984437
  0.7777777777777786  0.2222222222222214  0.6446151053984437
  0.1111111111111143  0.5555555555555571  0.6446151053984437
  0.4444444444444429  0.5555555555555571  0.6446151053984437
  0.7777777777777786  0.5555555555555571  0.6446151053984437
  0.1111111111111143  0.8888888888888857  0.6446151053984437
  0.4444444444444429  0.8888888888888857  0.6446151053984437
  0.7777777777777786  0.8888888888888857  0.6446151053984437
  0.2222222222222214  0.1111111111111143  0.1446151053984437
  0.5555555555555571  0.1111111111111143  0.1446151053984437
  0.8888888888888857  0.1111111111111143  0.1446151053984437
  0.2222222222222214  0.4444444444444429  0.1446151053984437
  0.5555555555555571  0.4444444444444429  0.1446151053984437
  0.8888888888888857  0.4444444444444429  0.1446151053984437
  0.2222222222222214  0.7777777777777786  0.1446151053984437
  0.5555555555555571  0.7777777777777786  0.1446151053984437
  0.8888888888888857  0.7777777777777786  0.1446151053984437
  0.2222222222222214  0.1111111111111143  0.3553848946015563
  0.5555555555555571  0.1111111111111143  0.3553848946015563
  0.8888888888888857  0.1111111111111143  0.3553848946015563
  0.2222222222222214  0.4444444444444429  0.3553848946015563
  0.5555555555555571  0.4444444444444429  0.3553848946015563
  0.8888888888888857  0.4444444444444429  0.3553848946015563
  0.2222222222222214  0.7777777777777786  0.3553848946015563
  0.5555555555555571  0.7777777777777786  0.3553848946015563
  0.8888888888888857  0.7777777777777786  0.3553848946015563
  0.1111111111111143  0.2222222222222214  0.8553848946015563
  0.4444444444444429  0.2222222222222214  0.8553848946015563
  0.7777777777777786  0.2222222222222214  0.8553848946015563
  0.1111111111111143  0.5555555555555571  0.8553848946015563
  0.4444444444444429  0.5555555555555571  0.8553848946015563
  0.7777777777777786  0.5555555555555571  0.8553848946015563
  0.1111111111111143  0.8888888888888857  0.8553848946015563
  0.4444444444444429  0.8888888888888857  0.8553848946015563
  0.7777777777777786  0.8888888888888857  0.8553848946015563

  0.00000000E+00  0.00000000E+00  0.00000000E+00
  0.00000000E+00  0.00000000E+00  0.00000000E+00
  0.00000000E+00  0.00000000E+00  0.00000000E+00
  0.00000000E+00  0.00000000E+00  0.00000000E+00
  0.00000000E+00  0.00000000E+00  0.00000000E+00
  0.00000000E+00  0.00000000E+00  0.00000000E+00
  0.00000000E+00  0.00000000E+00  0.00000000E+00
  0.00000000E+00  0.00000000E+00  0.00000000E+00
  0.00000000E+00  0.00000000E+00  0.00000000E+00
  0.00000000E+00  0.00000000E+00  0.00000000E+00
  0.00000000E+00  0.00000000E+00  0.00000000E+00
  0.00000000E+00  0.00000000E+00  0.00000000E+00
  0.00000000E+00  0.00000000E+00  0.00000000E+00
  0.00000000E+00  0.00000000E+00  0.00000000E+00
  0.00000000E+00  0.00000000E+00  0.00000000E+00
  0.00000000E+00  0.00000000E+00  0.00000000E+00
  0.00000000E+00  0.00000000E+00  0.00000000E+00
  0.00000000E+00  0.00000000E+00  0.00000000E+00
  0.00000000E+00  0.00000000E+00  0.00000000E+00
  0.00000000E+00  0.00000000E+00  0.00000000E+00
  0.00000000E+00  0.00000000E+00  0.00000000E+00
  0.00000000E+00  0.00000000E+00  0.00000000E+00
  0.00000000E+00  0.00000000E+00  0.00000000E+00
  0.00000000E+00  0.00000000E+00  0.00000000E+00
  0.00000000E+00  0.00000000E+00  0.00000000E+00
  0.00000000E+00  0.00000000E+00  0.00000000E+00
  0.00000000E+00  0.00000000E+00  0.00000000E+00
  0.00000000E+00  0.00000000E+00  0.00000000E+00
  0.00000000E+00  0.00000000E+00  0.00000000E+00
  0.00000000E+00  0.00000000E+00  0.00000000E+00
  0.00000000E+00  0.00000000E+00  0.00000000E+00
  0.00000000E+00  0.00000000E+00  0.00000000E+00
  0.00000000E+00  0.00000000E+00  0.00000000E+00
  0.00000000E+00  0.00000000E+00  0.00000000E+00
  0.00000000E+00  0.00000000E+00  0.00000000E+00
  0.00000000E+00  0.00000000E+00  0.00000000E+00
  0.00000000E+00  0.00000000E+00  0.00000000E+00
  0.00000000E+00  0.00000000E+00  0.00000000E+00
  0.00000000E+00  0.00000000E+00  0.00000000E+00
  0.00000000E+00  0.00000000E+00  0.00000000E+00
  0.00000000E+00  0.00000000E+00  0.00000000E+00
  0.00000000E+00  0.00000000E+00  0.00000000E+00
  0.00000000E+00  0.00000000E+00  0.00000000E+00
  0.00000000E+00  0.00000000E+00  0.00000000E+00
  0.00000000E+00  0.00000000E+00  0.00000000E+00
  0.00000000E+00  0.00000000E+00  0.00000000E+00
  0.00000000E+00  0.00000000E+00  0.00000000E+00
  0.00000000E+00  0.00000000E+00  0.00000000E+00
  0.00000000E+00  0.00000000E+00  0.00000000E+00
  0.00000000E+00  0.00000000E+00  0.00000000E+00
  0.00000000E+00  0.00000000E+00  0.00000000E+00
  0.00000000E+00  0.00000000E+00  0.00000000E+00
  0.00000000E+00  0.00000000E+00  0.00000000E+00
  0.00000000E+00  0.00000000E+00  0.00000000E+00
  0.00000000E+00  0.00000000E+00  0.00000000E+00
  0.00000000E+00  0.00000000E+00  0.00000000E+00
  0.00000000E+00  0.00000000E+00  0.00000000E+00
  0.00000000E+00  0.00000000E+00  0.00000000E+00
  0.00000000E+00  0.00000000E+00  0.00000000E+00
  0.00000000E+00  0.00000000E+00  0.00000000E+00
  0.00000000E+00  0.00000000E+00  0.00000000E+00
  0.00000000E+00  0.00000000E+00  0.00000000E+00
  0.00000000E+00  0.00000000E+00  0.00000000E+00
  0.00000000E+00  0.00000000E+00  0.00000000E+00
  0.00000000E+00  0.00000000E+00  0.00000000E+00
  0.00000000E+00  0.00000000E+00  0.00000000E+00
  0.00000000E+00  0.00000000E+00  0.00000000E+00
  0.00000000E+00  0.00000000E+00  0.00000000E+00
  0.00000000E+00  0.00000000E+00  0.00000000E+00
  0.00000000E+00  0.00000000E+00  0.00000000E+00
  0.00000000E+00  0.00000000E+00  0.00000000E+00
  0.00000000E+00  0.00000000E+00  0.00000000E+00
