generated by phonopy
   1.0
     6.7666934128909020  -11.7202567903686869    0.0000000000000000
     6.7666934128909020   11.7202567903686869    0.0000000000000000
     0.0000000000000000    0.0000000000000000   10.2925965411765397
Na S
  36   36
Direct
  0.0005881436174715  0.0000000000000000  0.0005881436174715
  0.3333333333333333  0.0000000000000000  0.0000000000000000
  0.6666666666666666  0.0000000000000000  0.0000000000000000
  0.0000000000000000  0.3333333333333333  0.0000000000000000
  0.3333333333333333  0.3333333333333333  0.0000000000000000
  0.6666666666666666  0.3333333333333333  0.0000000000000000
  0.0000000000000000  0.6666666666666666  0.0000000000000000
  0.3333333333333333  0.6666666666666666  0.0000000000000000
  0.6666666666666666  0.6666666666666666  0.0000000000000000
  0.0000000000000000  0.0000000000000000  0.5000000000000000
  0.3333333333333333  0.0000000000000000  0.5000000000000000
  0.6666666666666666  0.0000000000000000  0.5000000000000000
  0.0000000000000000  0.3333333333333333  0.5000000000000000
  0.3333333333333333  0.3333333333333333  0.5000000000000000
  0.6666666666666666  0.3333333333333333  0.5000000000000000
  0.0000000000000000  0.6666666666666666  0.5000000000000000
  0.3333333333333333  0.6666666666666666  0.5000000000000000
  0.6666666666666666  0.6666666666666666  0.5000000000000000
  0.1111111111111119  0.2222222222222214  0.2500000000000000
  0.4444444444444452  0.2222222222222214  0.2500000000000000
  0.7777777777777786  0.2222222222222214  0.2500000000000000
  0.1111111111111119  0.5555555555555547  0.2500000000000000
  0.4444444444444452  0.5555555555555547  0.2500000000000000
  0.7777777777777786  0.5555555555555547  0.2500000000000000
  0.1111111111111119  0.8888888888888881  0.2500000000000000
  0.4444444444444451  0.8888888888888881  0.2500000000000000
  0.7777777777777787  0.8888888888888881  0.2500000000000000
  0.2222222222222214  0.1111111111111119  0.7500000000000000
  0.5555555555555547  0.1111111111111119  0.7500000000000000
  0.8888888888888881  0.1111111111111118  0.7500000000000000
  0.2222222222222214  0.4444444444444452  0.7500000000000000
  0.5555555555555547  0.4444444444444452  0.7500000000000000
  0.8888888888888881  0.4444444444444451  0.7500000000000000
  0.2222222222222214  0.7777777777777786  0.7500000000000000
  0.5555555555555547  0.7777777777777786  0.7500000000000000
  0.8888888888888882  0.7777777777777786  0.7500000000000000
  0.1111111111111119  0.2222222222222214  0.6446151053984457
  0.4444444444444452  0.2222222222222214  0.6446151053984457
  0.7777777777777786  0.2222222222222214  0.6446151053984457
  0.1111111111111119  0.5555555555555547  0.6446151053984457
  0.4444444444444452  0.5555555555555547  0.6446151053984457
  0.7777777777777786  0.5555555555555547  0.6446151053984457
  0.1111111111111119  0.8888888888888881  0.6446151053984457
  0.4444444444444451  0.8888888888888881  0.6446151053984457
  0.7777777777777787  0.8888888888888881  0.6446151053984457
  0.2222222222222214  0.1111111111111119  0.1446151053984455
  0.5555555555555547  0.1111111111111119  0.1446151053984455
  0.8888888888888881  0.1111111111111118  0.1446151053984455
  0.2222222222222214  0.4444444444444452  0.1446151053984455
  0.5555555555555547  0.4444444444444452  0.1446151053984455
  0.8888888888888881  0.4444444444444451  0.1446151053984455
  0.2222222222222214  0.7777777777777786  0.1446151053984455
  0.5555555555555547  0.7777777777777786  0.1446151053984455
  0.8888888888888882  0.7777777777777786  0.1446151053984455
  0.2222222222222214  0.1111111111111119  0.3553848946015545
  0.5555555555555547  0.1111111111111119  0.3553848946015545
  0.8888888888888881  0.1111111111111118  0.3553848946015545
  0.2222222222222214  0.4444444444444452  0.3553848946015545
  0.5555555555555547  0.4444444444444452  0.3553848946015545
  0.8888888888888881  0.4444444444444451  0.3553848946015545
  0.2222222222222214  0.7777777777777786  0.3553848946015545
  0.5555555555555547  0.7777777777777786  0.3553848946015545
  0.8888888888888882  0.7777777777777786  0.3553848946015545
  0.1111111111111119  0.2222222222222214  0.8553848946015543
  0.4444444444444452  0.2222222222222214  0.8553848946015543
  0.7777777777777786  0.2222222222222214  0.8553848946015543
  0.1111111111111119  0.5555555555555547  0.8553848946015543
  0.4444444444444452  0.5555555555555547  0.8553848946015543
  0.7777777777777786  0.5555555555555547  0.8553848946015543
  0.1111111111111119  0.8888888888888881  0.8553848946015543
  0.4444444444444451  0.8888888888888881  0.8553848946015543
  0.7777777777777787  0.8888888888888881  0.8553848946015543
