Na16 Zn8 S16                            
   1.0000000000000000     
     6.7514261710045842   -0.0000000000000000    0.0000000000000004
    -0.0000000000000004    7.1523699618533412    0.0000000000000004
    -0.0000000000000000   -0.0000000000000000   18.6829421133240743
   Na   Zn   S 
    16     8    16
Direct
  0.9892542626404641  0.6856448390348818  0.0685973384807580
  0.0107457373595359  0.8143551609651182  0.5685973384807579
  0.5107457373595359  0.1856448390348819  0.9314026615192421
  0.4892542626404641  0.3143551609651182  0.4314026615192420
  0.0107457373595359  0.3143551609651182  0.9314026615192421
  0.9892542626404641  0.1856448390348819  0.4314026615192420
  0.4892542626404641  0.8143551609651182  0.0685973384807580
  0.5107457373595359  0.6856448390348818  0.5685973384807579
  0.6782535182893902  0.5454857005632827  0.2005817205765861
  0.3217464817106098  0.9545142994367173  0.7005817205765861
  0.8217464817106098  0.0454857005632828  0.7994182794234139
  0.1782535182893903  0.4545142994367172  0.2994182794234139
  0.3217464817106098  0.4545142994367172  0.7994182794234139
  0.6782535182893902  0.0454857005632828  0.2994182794234139
  0.1782535182893903  0.9545142994367173  0.2005817205765861
  0.8217464817106098  0.5454857005632827  0.7005817205765861
  0.1336142012531544  0.8791225487650980  0.9209005155847627
  0.8663857987468455  0.6208774512349020  0.4209005155847628
  0.3663857987468457  0.3791225487650980  0.0790994844152372
  0.6336142012531545  0.1208774512349020  0.5790994844152373
  0.8663857987468455  0.1208774512349020  0.0790994844152372
  0.1336142012531544  0.3791225487650980  0.5790994844152373
  0.6336142012531545  0.6208774512349020  0.9209005155847627
  0.3663857987468457  0.8791225487650980  0.4209005155847628
  0.2075713671411104  0.1048174169798057  0.0478340614816527
  0.7924286328588896  0.3951825830201944  0.5478340614816527
  0.2924286328588896  0.6048174169798057  0.9521659385183473
  0.7075713671411104  0.8951825830201943  0.4521659385183473
  0.7924286328588896  0.8951825830201943  0.9521659385183473
  0.2075713671411104  0.6048174169798057  0.4521659385183473
  0.7075713671411104  0.3951825830201944  0.0478340614816527
  0.2924286328588896  0.1048174169798057  0.5478340614816527
  0.2755214975284493  0.5779845643854065  0.1661921873529300
  0.7244785024715507  0.9220154356145935  0.6661921873529298
  0.2244785024715507  0.0779845643854064  0.8338078126470702
  0.7755214975284493  0.4220154356145935  0.3338078126470700
  0.7244785024715507  0.4220154356145935  0.8338078126470702
  0.2755214975284493  0.0779845643854064  0.3338078126470700
  0.7755214975284493  0.9220154356145935  0.1661921873529300
  0.2244785024715507  0.5779845643854065  0.6661921873529298

  0.00000000E+00  0.00000000E+00  0.00000000E+00
  0.00000000E+00  0.00000000E+00  0.00000000E+00
  0.00000000E+00  0.00000000E+00  0.00000000E+00
  0.00000000E+00  0.00000000E+00  0.00000000E+00
  0.00000000E+00  0.00000000E+00  0.00000000E+00
  0.00000000E+00  0.00000000E+00  0.00000000E+00
  0.00000000E+00  0.00000000E+00  0.00000000E+00
  0.00000000E+00  0.00000000E+00  0.00000000E+00
  0.00000000E+00  0.00000000E+00  0.00000000E+00
  0.00000000E+00  0.00000000E+00  0.00000000E+00
  0.00000000E+00  0.00000000E+00  0.00000000E+00
  0.00000000E+00  0.00000000E+00  0.00000000E+00
  0.00000000E+00  0.00000000E+00  0.00000000E+00
  0.00000000E+00  0.00000000E+00  0.00000000E+00
  0.00000000E+00  0.00000000E+00  0.00000000E+00
  0.00000000E+00  0.00000000E+00  0.00000000E+00
  0.00000000E+00  0.00000000E+00  0.00000000E+00
  0.00000000E+00  0.00000000E+00  0.00000000E+00
  0.00000000E+00  0.00000000E+00  0.00000000E+00
  0.00000000E+00  0.00000000E+00  0.00000000E+00
  0.00000000E+00  0.00000000E+00  0.00000000E+00
  0.00000000E+00  0.00000000E+00  0.00000000E+00
  0.00000000E+00  0.00000000E+00  0.00000000E+00
  0.00000000E+00  0.00000000E+00  0.00000000E+00
  0.00000000E+00  0.00000000E+00  0.00000000E+00
  0.00000000E+00  0.00000000E+00  0.00000000E+00
  0.00000000E+00  0.00000000E+00  0.00000000E+00
  0.00000000E+00  0.00000000E+00  0.00000000E+00
  0.00000000E+00  0.00000000E+00  0.00000000E+00
  0.00000000E+00  0.00000000E+00  0.00000000E+00
  0.00000000E+00  0.00000000E+00  0.00000000E+00
  0.00000000E+00  0.00000000E+00  0.00000000E+00
  0.00000000E+00  0.00000000E+00  0.00000000E+00
  0.00000000E+00  0.00000000E+00  0.00000000E+00
  0.00000000E+00  0.00000000E+00  0.00000000E+00
  0.00000000E+00  0.00000000E+00  0.00000000E+00
  0.00000000E+00  0.00000000E+00  0.00000000E+00
  0.00000000E+00  0.00000000E+00  0.00000000E+00
  0.00000000E+00  0.00000000E+00  0.00000000E+00
  0.00000000E+00  0.00000000E+00  0.00000000E+00
