Na2 Sb2 S4                              
   1.0000000000000000     
     5.1069990796805689    0.0390771476093315   -4.7961323576707811
    -0.9300178390810276    5.0217560118263922   -4.7961323576707811
    -0.0322524982264981   -0.0390771476090889    7.0059464006313972
   Na   Sb   S 
     2     2     4
Direct
  0.5000000000000000  0.5000000000000000 -0.0000000000000000
  0.2500000000000000  0.7500000000000000  0.5000000000000000
 -0.0000000000000000 -0.0000000000000000 -0.0000000000000000
  0.7500000000000000  0.2500000000000000  0.5000000000000000
  0.7606461368807779  0.7606461368807779  0.0000000000000000
  0.2393538631192222  0.2393538631192222  0.0000000000000000
  0.9893538631192221  0.4893538631192221  0.5000000000000000
  0.5106461368807779  0.0106461368807778  0.5000000000000000

  0.00000000E+00  0.00000000E+00  0.00000000E+00
  0.00000000E+00  0.00000000E+00  0.00000000E+00
  0.00000000E+00  0.00000000E+00  0.00000000E+00
  0.00000000E+00  0.00000000E+00  0.00000000E+00
  0.00000000E+00  0.00000000E+00  0.00000000E+00
  0.00000000E+00  0.00000000E+00  0.00000000E+00
  0.00000000E+00  0.00000000E+00  0.00000000E+00
  0.00000000E+00  0.00000000E+00  0.00000000E+00
