Na Al S                                 
   1.0000000000000000     
    12.1828203277415312    0.0000000000000000    0.0000000000000007
    -0.0000000000000005    7.5674693205415418    1.1970639402156102
     0.0000000000000000    0.0113082934473333   13.7304524371335805
   Na   Al   S 
    23     8    24
Direct
  0.9725237378203033  0.0261929783327801  0.8076121300273797
  0.8119680497935704  0.2659221740613020  0.9790337338627637
  0.7939633201704197  0.5395298341072206  0.7522529721518154
  0.7293956281240952  0.9178234166276837  0.5470084262286008
  0.9095920857048725  0.0956413358484554  0.4175843801816725
  0.2448304510024784  0.5684967410003452  0.5022068678088303
  0.8009904664647607  0.5154768852020126  0.2793994322272866
  0.2697151674326648  0.0650010809370087  0.5040730248579095
  0.7031762223263485  0.6270233994469407  0.9629928244591852
  0.4163768498521563  0.3863187370494714  0.6419887774481836
  0.2715475210166147  0.5134486619753744  0.9410907214459456
  0.2611489919994270  0.0101813812140605  0.9404607412655679
  0.7535584050941111  0.4157595503336609  0.5449163294168216
  0.2022011929967604  0.4480832683960827  0.2946660157622745
  0.2089285072438543  0.9527054436972904  0.2511821307775648
  0.5839874618979692  0.6028621252614528  0.3871107172205157
  0.3446777961652359  0.0084180352167280  0.7446398563834435
  0.0643460864241732  0.8905429580156934  0.6507329703294644
  0.1768674965127772  0.4933174635173643  0.7438745545507714
  0.5010784002431237  0.4074753950561387  0.2161813336926954
  0.6884480705715319  0.0250759527115463  0.7579610126099681
  0.5227061954468368  0.5880698470444372  0.7960922142435010
  0.7107622103978244  0.9762895053999685  0.3099914238535817
  0.9943947120179999  0.3603132727722453  0.9440270249224199
  0.0171404460519540  0.2878872575879683  0.6256037512509778
  0.5362182705084848  0.1354231513863837  0.5093784910096559
  0.4835148573481050  0.8096204463343000  0.5964285977333290
  0.5472920100928675  0.1753676610706094  0.8555097444035553
  0.6026741336364694  0.9358564940050798  0.0099964135870323
  0.9529199055800959  0.6903997837523264  0.5114904255853219
  0.9607793719701334  0.7904503733242194  0.7995547436072457
  0.3893704435132364  0.3163896446937002  0.7644343756959415
  0.3021141261736418  0.0909839139797413  0.1142963625324711
  0.4247313208283359  0.3556881451250433  0.5077887582742306
  0.1575941125052935  0.8749052871563734  0.7506463390667335
  0.8617208618860630  0.2284849069539874  0.0790828046505538
  0.6501196464539873  0.7138904489294120  0.1534311472174537
  0.7656506737424849  0.7479326823586447  0.4307123876637675
  0.1024650216466441  0.8951180408416448  0.5300631110392473
  0.3152189489772894  0.7416560603598654  0.6418425284263733
  0.5624767026609092  0.9264952954865748  0.8150859986056886
  0.6484767688823396  0.2861578520432886  0.8228238016999185
  0.5597980766226485  0.9217564535717955  0.1880917759879637
  0.1946119049124064  0.2263643734176313  0.6505916786516366
  0.0194202726676664  0.3581803901351819  0.5050387957857438
  0.5938912372041756  0.6095092074143551  0.6231372971541020
  0.5369641226440294  0.1912506457537120  0.9970635170595870
  0.6551195680157633  0.2419604278159042  0.4492157932406400
  0.8757283586258779  0.0173266322909882  0.6254939053958992
  0.9840366829496574  0.7111371964712419  0.6228462000309420
  0.9987170080165768  0.3533179969607900  0.6649407958613267
  0.7427049927158507  0.8657820185252092  0.8036578579944518
  0.5412990791085406  0.0741818412105033  0.6319916186510355
  0.4526009716166968  0.7259985198096999  0.1087192740538470
  0.4901279990948524  0.8911471726810873  0.4808404206200336

             NaN             NaN             NaN
             NaN             NaN             NaN
             NaN             NaN             NaN
             NaN             NaN             NaN
             NaN             NaN             NaN
             NaN             NaN             NaN
             NaN             NaN             NaN
             NaN             NaN             NaN
             NaN             NaN             NaN
             NaN             NaN             NaN
             NaN             NaN             NaN
             NaN             NaN             NaN
             NaN             NaN             NaN
             NaN             NaN             NaN
             NaN             NaN             NaN
             NaN             NaN             NaN
             NaN             NaN             NaN
             NaN             NaN             NaN
             NaN             NaN             NaN
             NaN             NaN             NaN
             NaN             NaN             NaN
             NaN             NaN             NaN
             NaN             NaN             NaN
             NaN             NaN             NaN
             NaN             NaN             NaN
             NaN             NaN             NaN
             NaN             NaN             NaN
             NaN             NaN             NaN
             NaN             NaN             NaN
             NaN             NaN             NaN
             NaN             NaN             NaN
             NaN             NaN             NaN
             NaN             NaN             NaN
             NaN             NaN             NaN
             NaN             NaN             NaN
             NaN             NaN             NaN
             NaN             NaN             NaN
             NaN             NaN             NaN
             NaN             NaN             NaN
             NaN             NaN             NaN
             NaN             NaN             NaN
             NaN             NaN             NaN
             NaN             NaN             NaN
             NaN             NaN             NaN
             NaN             NaN             NaN
             NaN             NaN             NaN
             NaN             NaN             NaN
             NaN             NaN             NaN
             NaN             NaN             NaN
             NaN             NaN             NaN
             NaN             NaN             NaN
             NaN             NaN             NaN
             NaN             NaN             NaN
             NaN             NaN             NaN
             NaN             NaN             NaN
