Na3AlS3 bottleneck NEB image 06
  1.0
     12.1828203277415312      0.0000000000000000      0.0000000000000007
     -0.0000000000000005      7.5674693205415418      1.1970639402156102
      0.0000000000000000      0.0113082934473333     13.7304524371335805
  Na  Al  S
  23  8  24
Direct
  0.8885191193244303  0.0814380005477149  0.8991087606923617
  0.7952004926321605  0.3041764346467672  0.8468977990191751
  0.7730133531553323  0.7799467240936260  0.6128138040453779
  0.8385763383801833  0.0651843010089823  0.4085597756780629
  0.1264622544276908  0.3548648440982667  0.4237753594079653
  0.9963453153778374  0.5230220046995283  0.3382041742426417
  0.0760797662997581  0.2137308598510007  0.3840352712355791
  0.5506696464611860  0.3251696567171092  0.1933857444192159
  0.4507467636154108  0.4049899838311109  0.6763671264774265
  0.2578233354701840  0.5063116990460967  0.9852785283802127
  0.2435516370393574  0.0099083615915332  0.9857167641896709
  0.7567682510864184  0.4621156595720923  0.5092658510246791
  0.1833778430186079  0.4944237687344510  0.2449787557490315
  0.0286371593426913  0.9167966067043268  0.1822535797458922
  0.5709223570474117  0.6026057566507097  0.3396103802527833
  0.3228935813767635  0.9882364774162268  0.7499692149609503
  0.0379675399606268  0.9175400980613332  0.6891082246348352
  0.3186289250833527  0.9896322874990693  0.2438020017672627
  0.1772180582749948  0.4907703624988947  0.7494159233119451
  0.4695981122403144  0.4135569186820588  0.1800839249619645
  0.6834362756079810  0.0122689436299416  0.7494355130839676
  0.5836606444279636  0.5816493727336282  0.8681278422160023
  0.6781571808357399  0.0072963299358396  0.2333412457747479
  0.0076295412910783  0.3323617468130498  0.0720333779614070
  0.0100066541063664  0.3282952000871096  0.5695027567120158
  0.5104284665679397  0.1722999758303536  0.4252123041833357
  0.4924227627853648  0.8240358789064237  0.5682233697684328
  0.5071921988968736  0.1674289649163586  0.9232569801620147
  0.4945976595211762  0.8294517097600845  0.0705701098529002
  0.9926471539585326  0.6748763415132933  0.4252612578020787
  0.9958724105917012  0.6673368594712324  0.9232664693095063
  0.3549278573695565  0.2955093737265391  0.8559050992010448
  0.1677857976049974  0.2151875473014949  0.1250283298546306
  0.3647971400123258  0.3274173633075421  0.3635876167839414
  0.1495159543765975  0.7927406811036781  0.8580780611473069
  0.9992259856674728  0.6228685680948937  0.0929457463000352
  0.6379549505786295  0.6830360734113992  0.1431222476242871
  0.8313180367281193  0.7783261071894276  0.3655200571917228
  0.1392365519188238  0.8240150821969615  0.3609414533925451
  0.3335480173194237  0.7164601500025178  0.6290400669613537
  0.5049568895276954  0.8762600054096957  0.9014862519075881
  0.6615046939941069  0.2971129870513471  0.8646081149679479
  0.8621206512493381  0.1880290824025611  0.1419815569157066
  0.1691784085793069  0.2176427111637711  0.6287649823357960
  0.0134987113102993  0.3889645372540053  0.3995590068164160
  0.6396442959927412  0.6689385375392400  0.6256786153752216
  0.5004341711021394  0.1195181709381235  0.0926409405528675
  0.6715806620517558  0.2752624703393091  0.3645224498204832
  0.8608510745528116  0.1780799923364581  0.6269706115224553
  0.9930337473067177  0.6166612765229370  0.5947616444086294
  0.9985940516324738  0.3752568345133363  0.9029039676430373
  0.8419180088890753  0.7945735782953741  0.8617015324327522
  0.5131527875618735  0.1103567003889355  0.5947890429894052
  0.3339282560761261  0.7130265147379455  0.1226821503636916
  0.4877944077291584  0.8879538599454827  0.3984211642503828
