Na Al S 
 1.0000000000000000
    12.1828203277415312    0.0000000000000000    0.0000000000000007
    -0.0000000000000005    7.5674693205415418    1.1970639402156102
     0.0000000000000000    0.0113082934473333   13.7304524371335805
 Na  Al  S  
  23   8  24
Direct
  0.9029926694449818  0.0708295063237875  0.9015188282291633
  0.7496460768122329  0.3180725183570611 -0.0186085024014397
  0.8367175278577884  0.4979912351699722  0.7468144107048825
  0.7631597868325974  0.9752187603229263  0.5060712531920002
  0.9247389160945021  0.1068745765446126  0.3422369635874587
  0.1612120946570956  0.5171892373784597  0.4700010800510928
  0.8317093812817051  0.5088074619465647  0.2322300380373309
  0.2414941887563385  0.0052239106098454  0.4868969353148117
  0.4845163522559587  0.2330415534116593  0.7324205728511755
  0.1841177359043876  0.4113668555212736  1.0115747422373951
  0.2345757580550382 -0.0200197208540705  0.9944689044588014
  0.7747205626403546  0.4559776489399437  0.5069001567831259
  0.1208758217183862  0.4437838572973745  0.2434271518639736
  0.0224961629111924  0.9218580914985501  0.1779679126055529
  0.6137456034409128  0.6098847381530303  0.3150081221326524
  0.3285402086540476  0.6401872021401001  0.7989256569976898
  0.0197002811025425  0.9236355361206583  0.6887488437373768
  0.3194749779059735  0.6706846867687832  0.2462264924508436
  0.1086451772164213  0.4538665216753726  0.7455193053647232
  0.4949219461674030  0.3878759535596085  0.1639811389546079
  0.6995441791590693 -0.0161481043489348  0.7509363835010838
  0.6232065572737003  0.5885425343866343  0.8666905186621210
  0.6811495017683198 -0.0011860424457003  0.2319078782398780
  0.0028678621249109  0.3282243618403429  0.0654177027194041
 -0.0063191401884878  0.3084092661856325  0.5710395046597599
  0.5241496738089479  0.1174477696501024  0.4151391192148736
  0.5316770950209674  1.0038566529595563  0.5676067926718623
  0.5193657430056401  0.1266757624054295  0.9456742344401672
  0.5102244766872033  0.8436011320573296  0.0559539954679118
  0.9961384222123145  0.6748647320997959  0.4244774983350004
  0.4144111436691794  0.7226843935768505  1.0906287594310713
  0.3511194809702934  0.2046830483119780  0.8780091473034531
  0.1654060499037604  0.2072488415257284  0.1190744117238558
  0.3617223180823452  0.2239580744084037  0.3476678933592670
  0.1124752255762406  0.8123214042799044  0.8670281538955484
 -0.0089316708999124  0.6263140922377958  0.0852155890985911
  0.6489953202714339  0.6883789562632541  0.1299721683535441
  0.8382819401199783  0.7816345771788195  0.3631249233856269
  0.1138021363438680  0.8486252500509576  0.3622448665820693
  0.2724582843677139  0.9358415696550889  0.6110507279506356
  0.5717031717760280  1.0274427649229674  0.8578120876601398
  0.6796502504558919  0.2594159191483318  0.8747221516126379
  0.8711910012486245  0.1777910353088258  0.1490246108862701
  0.1552876867883682  0.1913526575218421  0.6309308396276925
 -0.0159859707573443  0.3667526893370347  0.3987034457781853
  0.6962220377906956  0.7099484357874899  0.6360328554194390
  0.4983285841431071  0.1043339524914122  0.0890876720524112
  0.6815038303542190  0.2618715750124444  0.3602045251384614
  0.8654110308665749  0.1731298255074963  0.6262263996336351
  0.4127595126362855  0.5730366850962443  0.5547630505003420
 -0.0244299678430925  0.3638777579577435  0.9061429794478296
  0.8550118788575516  0.7994987960333898  0.8631983996208922
  0.5275931611812044  0.0300357641311325  0.5934103938941289
  0.3345224147504773  0.7684658818977774  0.0398001144436579
  0.5139689563809888  0.9860937803413645  0.3652530999180246
Cartesian
  0.0000000000000000  0.0000000000000000  0.0000000000000000
  0.0000000000000000  0.0000000000000000  0.0000000000000000
  0.0000000000000000  0.0000000000000000  0.0000000000000000
  0.0000000000000000  0.0000000000000000  0.0000000000000000
  0.0000000000000000  0.0000000000000000  0.0000000000000000
  0.0000000000000000  0.0000000000000000  0.0000000000000000
  0.0000000000000000  0.0000000000000000  0.0000000000000000
  0.0000000000000000  0.0000000000000000  0.0000000000000000
  0.0000000000000000  0.0000000000000000  0.0000000000000000
  0.0000000000000000  0.0000000000000000  0.0000000000000000
  0.0000000000000000  0.0000000000000000  0.0000000000000000
  0.0000000000000000  0.0000000000000000  0.0000000000000000
  0.0000000000000000  0.0000000000000000  0.0000000000000000
  0.0000000000000000  0.0000000000000000  0.0000000000000000
  0.0000000000000000  0.0000000000000000  0.0000000000000000
  0.0000000000000000  0.0000000000000000  0.0000000000000000
  0.0000000000000000  0.0000000000000000  0.0000000000000000
  0.0000000000000000  0.0000000000000000  0.0000000000000000
  0.0000000000000000  0.0000000000000000  0.0000000000000000
  0.0000000000000000  0.0000000000000000  0.0000000000000000
  0.0000000000000000  0.0000000000000000  0.0000000000000000
  0.0000000000000000  0.0000000000000000  0.0000000000000000
  0.0000000000000000  0.0000000000000000  0.0000000000000000
  0.0000000000000000  0.0000000000000000  0.0000000000000000
  0.0000000000000000  0.0000000000000000  0.0000000000000000
  0.0000000000000000  0.0000000000000000  0.0000000000000000
  0.0000000000000000  0.0000000000000000  0.0000000000000000
  0.0000000000000000  0.0000000000000000  0.0000000000000000
  0.0000000000000000  0.0000000000000000  0.0000000000000000
  0.0000000000000000  0.0000000000000000  0.0000000000000000
  0.0000000000000000  0.0000000000000000  0.0000000000000000
  0.0000000000000000  0.0000000000000000  0.0000000000000000
  0.0000000000000000  0.0000000000000000  0.0000000000000000
  0.0000000000000000  0.0000000000000000  0.0000000000000000
  0.0000000000000000  0.0000000000000000  0.0000000000000000
  0.0000000000000000  0.0000000000000000  0.0000000000000000
  0.0000000000000000  0.0000000000000000  0.0000000000000000
  0.0000000000000000  0.0000000000000000  0.0000000000000000
  0.0000000000000000  0.0000000000000000  0.0000000000000000
  0.0000000000000000  0.0000000000000000  0.0000000000000000
  0.0000000000000000  0.0000000000000000  0.0000000000000000
  0.0000000000000000  0.0000000000000000  0.0000000000000000
  0.0000000000000000  0.0000000000000000  0.0000000000000000
  0.0000000000000000  0.0000000000000000  0.0000000000000000
  0.0000000000000000  0.0000000000000000  0.0000000000000000
  0.0000000000000000  0.0000000000000000  0.0000000000000000
  0.0000000000000000  0.0000000000000000  0.0000000000000000
  0.0000000000000000  0.0000000000000000  0.0000000000000000
  0.0000000000000000  0.0000000000000000  0.0000000000000000
  0.0000000000000000  0.0000000000000000  0.0000000000000000
  0.0000000000000000  0.0000000000000000  0.0000000000000000
  0.0000000000000000  0.0000000000000000  0.0000000000000000
  0.0000000000000000  0.0000000000000000  0.0000000000000000
  0.0000000000000000  0.0000000000000000  0.0000000000000000
  0.0000000000000000  0.0000000000000000  0.0000000000000000
