Na Al S 
 1.0000000000000000
    12.1828203277415312   -0.0000000000000000    0.0000000000000007
    -0.0000000000000005    7.5674693205415418    1.1970639402156102
     0.0000000000000000    0.0113082934473333   13.7304524371335805
 Na  Al  S  
  23   8  24
Direct
  0.9725237378203003  0.0261929783327789  0.8076121300273778
  0.8119680497935676  0.2659221740612990 -0.0209662661372390
  0.7939633201704209  0.5395298341072178  0.7522529721518160
  0.7293956281240948  0.9178234166276849  0.5470084262285974
  0.9095920857048758  0.0956413358484533  0.4175843801816738
  0.2448304510024772  0.5684967410003472  0.5022068678088288
  0.8009904664647586  0.5154768852020112  0.2793994322272886
  0.2697151674326683  0.0650010809370065  0.5040730248579112
  0.7031762223263456  0.6270233994469436 -0.0370071755408128
  0.4163768498521561  0.3863187370494691  0.6419887774481845
  0.2715475210166127  0.5134486619753709  0.9410907214459441
  0.2611489919994283  0.0101813812140573  0.9404607412655650
  0.7535584050941100  0.4157595503336595  0.5449163294168220
  0.2022011929967569  0.4480832683960804  0.2946660157622741
  0.2089285072438563  0.9527054436972873  0.2511821307775646
  0.5839874618979716  0.6028621252614533  0.3871107172205137
  0.3446777961652382  1.0084180352167280  0.7446398563834464
  0.0643460864241730  0.8905429580156919  0.6507329703294650
  0.1768674965127784  0.4933174635173644  0.7438745545507721
  0.5010784002431261  0.4074753950561379  0.2161813336926938
  0.6884480705715343  0.0250759527115458  0.7579610126099706
  0.5227061954468342  0.5880698470444361  0.7960922142435015
  0.7107622103978232 -0.0237104946000293  0.3099914238535827
 -0.0056052879820009  0.3603132727722478 -0.0559729750775793
  0.0171404460519570  0.2878872575879709  0.6256037512509806
  0.5362182705084823  0.1354231513863856  0.5093784910096583
  0.4835148573481063  0.8096204463343010  0.5964285977333273
  0.5472920100928682  0.1753676610706081  0.8555097444035535
  0.6026741336364696  0.9358564940050823  0.0099964135870307
  0.9529199055800965  0.6903997837523295  0.5114904255853219
  0.9607793719701359  0.7904503733242172  0.7995547436072449
  0.3893704435132339  0.3163896446937020  0.7644343756959407
  0.3021141261736392  0.0909839139797429  0.1142963625324686
  0.4247313208283345  0.3556881451250452  0.5077887582742276
  0.1575941125052949  0.8749052871563733  0.7506463390667369
 -0.1382791381139380  0.2284849069539873  0.0790828046505515
  0.6501196464539879  0.7138904489294118  0.1534311472174534
  0.7656506737424840  0.7479326823586446  0.4307123876637644
  0.1024650216466439  0.8951180408416481  0.5300631110392462
  0.3152189489772892  0.7416560603598684  0.6418425284263728
  0.5624767026609085  0.9264952954865778  0.8150859986056908
  0.6484767688823412  0.2861578520432888  0.8228238016999192
  0.5597980766226512 -0.0782435464282069  0.1880917759879623
  0.1946119049124078  0.2263643734176317  0.6505916786516336
  0.0194202726676647  0.3581803901351803  0.5050387957857467
  0.5938912372041771  0.6095092074143579  0.6231372971540988
  0.5369641226440294  0.1912506457537154 -0.0029364829404139
  0.6551195680157621  0.2419604278159061  0.4492157932406430
  0.8757283586258751  0.0173266322909878  0.6254939053958987
  0.9840366829496581  0.7111371964712445  0.6228462000309436
  0.9987170080165743  0.3533179969607915  0.6649407958613253
  0.7427049927158499  0.8657820185252112  0.8036578579944517
  0.5412990791085409  0.0741818412105029  0.6319916186510339
  0.4526009716166944  0.7259985198096982  0.1087192740538490
  0.4901279990948504  0.8911471726810892  0.4808404206200362
Cartesian
  0.0000000000000000  0.0000000000000000  0.0000000000000000
  0.0000000000000000  0.0000000000000000  0.0000000000000000
  0.0000000000000000  0.0000000000000000  0.0000000000000000
  0.0000000000000000  0.0000000000000000  0.0000000000000000
  0.0000000000000000  0.0000000000000000  0.0000000000000000
  0.0000000000000000  0.0000000000000000  0.0000000000000000
  0.0000000000000000  0.0000000000000000  0.0000000000000000
  0.0000000000000000  0.0000000000000000  0.0000000000000000
  0.0000000000000000  0.0000000000000000  0.0000000000000000
  0.0000000000000000  0.0000000000000000  0.0000000000000000
  0.0000000000000000  0.0000000000000000  0.0000000000000000
  0.0000000000000000  0.0000000000000000  0.0000000000000000
  0.0000000000000000  0.0000000000000000  0.0000000000000000
  0.0000000000000000  0.0000000000000000  0.0000000000000000
  0.0000000000000000  0.0000000000000000  0.0000000000000000
  0.0000000000000000  0.0000000000000000  0.0000000000000000
  0.0000000000000000  0.0000000000000000  0.0000000000000000
  0.0000000000000000  0.0000000000000000  0.0000000000000000
  0.0000000000000000  0.0000000000000000  0.0000000000000000
  0.0000000000000000  0.0000000000000000  0.0000000000000000
  0.0000000000000000  0.0000000000000000  0.0000000000000000
  0.0000000000000000  0.0000000000000000  0.0000000000000000
  0.0000000000000000  0.0000000000000000  0.0000000000000000
  0.0000000000000000  0.0000000000000000  0.0000000000000000
  0.0000000000000000  0.0000000000000000  0.0000000000000000
  0.0000000000000000  0.0000000000000000  0.0000000000000000
  0.0000000000000000  0.0000000000000000  0.0000000000000000
  0.0000000000000000  0.0000000000000000  0.0000000000000000
  0.0000000000000000  0.0000000000000000  0.0000000000000000
  0.0000000000000000  0.0000000000000000  0.0000000000000000
  0.0000000000000000  0.0000000000000000  0.0000000000000000
  0.0000000000000000  0.0000000000000000  0.0000000000000000
  0.0000000000000000  0.0000000000000000  0.0000000000000000
  0.0000000000000000  0.0000000000000000  0.0000000000000000
  0.0000000000000000  0.0000000000000000  0.0000000000000000
  0.0000000000000000  0.0000000000000000  0.0000000000000000
  0.0000000000000000  0.0000000000000000  0.0000000000000000
  0.0000000000000000  0.0000000000000000  0.0000000000000000
  0.0000000000000000  0.0000000000000000  0.0000000000000000
  0.0000000000000000  0.0000000000000000  0.0000000000000000
  0.0000000000000000  0.0000000000000000  0.0000000000000000
  0.0000000000000000  0.0000000000000000  0.0000000000000000
  0.0000000000000000  0.0000000000000000  0.0000000000000000
  0.0000000000000000  0.0000000000000000  0.0000000000000000
  0.0000000000000000  0.0000000000000000  0.0000000000000000
  0.0000000000000000  0.0000000000000000  0.0000000000000000
  0.0000000000000000  0.0000000000000000  0.0000000000000000
  0.0000000000000000  0.0000000000000000  0.0000000000000000
  0.0000000000000000  0.0000000000000000  0.0000000000000000
  0.0000000000000000  0.0000000000000000  0.0000000000000000
  0.0000000000000000  0.0000000000000000  0.0000000000000000
  0.0000000000000000  0.0000000000000000  0.0000000000000000
  0.0000000000000000  0.0000000000000000  0.0000000000000000
  0.0000000000000000  0.0000000000000000  0.0000000000000000
  0.0000000000000000  0.0000000000000000  0.0000000000000000
