Na6 Sb2 S8
1.0
   7.1669964178379564    0.0000000000000000    0.0000000000000004
  -0.0000000000000004    7.1669964178379564    0.0000000000000004
   0.0000000000000000    0.0000000000000000    7.1669964178379564
Na Sb S
6 2 8
direct
   0.0000000000000000    0.0000000000000000    0.5000000000000000 Na+
   0.0000000000000000    0.5000000000000000    0.0000000000000000 Na+
   0.5000000000000000    0.0000000000000000    0.0000000000000000 Na+
   0.5000000000000000    0.5000000000000000    0.0000000000000000 Na+
   0.5000000000000000    0.0000000000000000    0.5000000000000000 Na+
   0.0000000000000000    0.5000000000000000    0.5000000000000000 Na+
   0.0000000000000000    0.0000000000000000    0.0000000000000000 Sb5+
   0.5000000000000000    0.5000000000000000    0.5000000000000000 Sb5+
   0.3109426450000000    0.3109426450000000    0.3109426450000000 S2-
   0.1890573549999990    0.1890573549999990    0.8109426450000000 S2-
   0.8109426450000000    0.1890573549999990    0.1890573549999990 S2-
   0.1890573549999990    0.8109426450000000    0.1890573549999990 S2-
   0.8109426450000000    0.8109426450000000    0.8109426450000000 S2-
   0.6890573550000001    0.6890573550000001    0.3109426449999990 S2-
   0.3109426449999990    0.6890573550000001    0.6890573550000001 S2-
   0.6890573550000001    0.3109426449999990    0.6890573550000001 S2-
