NMC-111 Li=0.25 (2/6 Li)
1.0
      4.9574000000      0.0000000000      0.0000000000
      0.0000000000      2.8400000000      0.0000000000
     -0.0335147985      0.0000000000     14.1209602279
  Li  Ni  Mn  Co  O
  2  3  2  1  12
Direct
      0.0000000000      0.6565600000      0.0000000000
      0.0000000000      0.8329100000      0.5000000000
      0.0000000000      0.5038700000      0.5000000000
      0.0000000000      0.3300700000      0.0000000000
      0.0000000000      0.1636900000      0.5000000000
      0.0000000000      0.0056300000      0.0000000000
      0.0000000000      0.8318700000      0.5000000000
      0.0000000000      0.6636900000      0.0000000000
      0.0000000000      0.9925800000      0.0000000000
      0.0000000000      0.5124100000      0.5000000000
      0.0000000000      0.9806700000      0.0000000000
      0.0000000000      0.5173200000      0.5000000000
      0.0000000000      0.3181800000      0.0000000000
      0.0000000000      0.8557300000      0.5000000000
      0.0000000000      0.3364700000      0.0000000000
      0.0000000000      0.8119600000      0.5000000000
      0.0000000000      0.1460100000      0.5000000000
      0.0000000000      0.6802100000      0.0000000000
      0.0000000000      0.1560700000      0.5000000000
      0.0000000000      0.6891200000      0.0000000000
