Na6                                     
   1.0000000000000000     
     0.0000000000000000    6.4782001623517722    0.0000526078633618
     3.7150600284807185    0.0000000000000000    0.0000000000000000
     0.0000000000000000   -2.2034032468934561   -9.2987799330911436
   Na
     6
Direct
  0.0000000000000000  0.0000000000000000  0.0000000000000000
  0.7775648892260918  0.0000000000000000  0.3333427014805892
  0.7224351107739082  0.5000000000000000  0.6666572985194108
  0.5000000000000000  0.5000000000000000  0.0000000000000000
  0.2775648892260918  0.5000000000000000  0.3333427014805892
  0.2224351107739082  0.0000000000000000  0.6666572985194108

  0.00000000E+00  0.00000000E+00  0.00000000E+00
  0.00000000E+00  0.00000000E+00  0.00000000E+00
  0.00000000E+00  0.00000000E+00  0.00000000E+00
  0.00000000E+00  0.00000000E+00  0.00000000E+00
  0.00000000E+00  0.00000000E+00  0.00000000E+00
  0.00000000E+00  0.00000000E+00  0.00000000E+00
