Na6
1.0
   0.0000000000000000    6.3933040894708748    0.0000000000000000
   3.7131040587402078    0.0000000000000000    0.0000000000000000
   0.0000000000000000   -2.1744518351645539   -9.3648511597267525
Na
6
direct
   0.0000000000000000    0.0000000000000000    0.0000000000000000 Na
   0.7775850000000001    0.0000000000000000    0.3333240000000001 Na
   0.7224149999999999    0.5000000000000000    0.6666759999999999 Na
   0.5000000000000000    0.5000000000000000    0.0000000000000000 Na
   0.2775850000000001    0.5000000000000000    0.3333240000000001 Na
   0.2224149999999999    0.0000000000000000    0.6666759999999999 Na
