generated by phonopy
   1.0
    11.7732692783697388    0.0000000000000000    0.0000000000000008
     0.0000000000000024   15.6789074163783670    0.0000000000000010
     0.0000000000000000    0.0000000000000000   14.7846831983396569
Na S
  32   80
Direct
  0.0999565844413600  0.4749410765560160  0.7500000000000000
  0.5999565844413600  0.4749410765560160  0.7500000000000001
  0.0999565844413600  0.9749410765560161  0.7500000000000001
  0.5999565844413600  0.9749410765560161  0.7500000000000000
  0.3499565844413606  0.2750589234439840  0.2500000000000000
  0.8499565844413605  0.2750589234439840  0.2500000000000000
  0.3499565844413605  0.7750589234439841  0.2500000000000000
  0.8499565844413607  0.7750589234439841  0.2500000000000000
  0.1500434155586401  0.2249410765560158  0.7500000000000000
  0.6500434155586401  0.2249410765560158  0.7500000000000000
  0.1500434155586401  0.7249410765560158  0.7500000000000000
  0.6500434155586401  0.7249410765560158  0.7500000000000001
  0.4000434155586395  0.0250589234439842  0.2500000000000000
  0.9000434155586394  0.0250589234439842  0.2500000000000000
  0.4000434155586394  0.5250589234439843  0.2500000000000000
  0.9000434155586394  0.5250589234439843  0.2500000000000000
  0.0000000000000000  0.0000000000000000  0.5000000000000000
  0.5000000000000000  0.0000000000000000  0.5000000000000000
  0.0000000000000000  0.5000000000000000  0.5000000000000000
  0.5000000000000000  0.5000000000000000  0.5000000000000000
  0.2500000000000000  0.2500000000000000  0.5000000000000000
  0.7500000000000000  0.2500000000000000  0.5000000000000000
  0.2500000000000000  0.7500000000000001  0.5000000000000000
  0.7500000000000000  0.7500000000000001  0.5000000000000000
  0.2500000000000000  0.2500000000000000  0.0000000000000000
  0.7500000000000000  0.2500000000000000  0.0000000000000000
  0.2500000000000000  0.7500000000000001  0.0000000000000000
  0.7500000000000000  0.7500000000000001  0.0000000000000000
  0.0000000000000000  0.0000000000000000  0.0000000000000000
  0.5000000000000000  0.0000000000000000  0.0000000000000000
  0.0000000000000000  0.5000000000000000  0.0000000000000000
  0.5000000000000000  0.5000000000000000  0.0000000000000000
  0.0538541359005198  0.2248433176015753  0.1354550983446246
  0.5530047541558611  0.2248433176015753  0.1354550983446246
  0.0530047541558610  0.7248433176015753  0.1354550983446246
  0.5530047541558610  0.7248433176015753  0.1354550983446246
  0.3030047541558609  0.0251566823984248  0.8645449016553759
  0.8030047541558609  0.0251566823984248  0.8645449016553759
  0.3030047541558609  0.5251566823984247  0.8645449016553759
  0.8030047541558610  0.5251566823984247  0.8645449016553759
  0.1969952458441391  0.4748433176015751  0.3645449016553757
  0.6969952458441391  0.4748433176015751  0.3645449016553757
  0.1969952458441390  0.9748433176015752  0.3645449016553757
  0.6969952458441390  0.9748433176015752  0.3645449016553757
  0.4469952458441391  0.2751566823984249  0.6354550983446242
  0.9469952458441390  0.2751566823984249  0.6354550983446241
  0.4469952458441391  0.7751566823984249  0.6354550983446241
  0.9469952458441391  0.7751566823984249  0.6354550983446241
  0.4469952458441391  0.2751566823984249  0.8645449016553759
  0.9469952458441390  0.2751566823984249  0.8645449016553759
  0.4469952458441391  0.7751566823984249  0.8645449016553759
  0.9469952458441391  0.7751566823984249  0.8645449016553760
  0.1969952458441391  0.4748433176015751  0.1354550983446246
  0.6969952458441391  0.4748433176015751  0.1354550983446246
  0.1969952458441390  0.9748433176015752  0.1354550983446246
  0.6969952458441390  0.9748433176015752  0.1354550983446246
  0.3030047541558609  0.0251566823984248  0.6354550983446241
  0.8030047541558609  0.0251566823984248  0.6354550983446242
  0.3030047541558609  0.5251566823984247  0.6354550983446242
  0.8030047541558610  0.5251566823984247  0.6354550983446241
  0.0530047541558610  0.2248433176015753  0.3645449016553757
  0.5530047541558611  0.2248433176015753  0.3645449016553757
  0.0530047541558610  0.7248433176015753  0.3645449016553757
  0.5530047541558610  0.7248433176015753  0.3645449016553757
  0.1332394640552186  0.1762497257193135  0.2500000000000000
  0.6332394640552186  0.1762497257193135  0.2500000000000000
  0.1332394640552186  0.6762497257193136  0.2500000000000000
  0.6332394640552186  0.6762497257193136  0.2500000000000000
  0.3832394640552183  0.0737502742806864  0.7500000000000000
  0.8832394640552182  0.0737502742806864  0.7500000000000000
  0.3832394640552183  0.5737502742806864  0.7500000000000000
  0.8832394640552184  0.5737502742806864  0.7500000000000000
  0.1167605359447816  0.4262497257193136  0.2500000000000000
  0.6167605359447815  0.4262497257193136  0.2500000000000000
  0.1167605359447815  0.9262497257193136  0.2500000000000000
  0.6167605359447815  0.9262497257193136  0.2500000000000000
  0.3667605359447818  0.3237502742806865  0.7500000000000000
  0.8667605359447816  0.3237502742806865  0.7500000000000001
  0.3667605359447817  0.8237502742806866  0.7500000000000001
  0.8667605359447816  0.8237502742806866  0.7500000000000000
  0.4172981198391210  0.1463150668451892  0.3965416463855975
  0.9172981198391210  0.1463150668451892  0.3965416463855975
  0.4172981198391210  0.6463150668451891  0.3965416463855975
  0.9172981198391210  0.6463150668451891  0.3965416463855975
  0.1672981198391205  0.1036849331548109  0.6034583536144031
  0.6672981198391205  0.1036849331548109  0.6034583536144030
  0.1672981198391205  0.6036849331548109  0.6034583536144030
  0.6672981198391205  0.6036849331548109  0.6034583536144030
  0.3327018801608790  0.3963150668451890  0.1034583536144026
  0.8327018801608790  0.3963150668451890  0.1034583536144026
  0.3327018801608790  0.8963150668451889  0.1034583536144026
  0.8327018801608789  0.8963150668451889  0.1034583536144026
  0.0827018801608793  0.3536849331548111  0.8965416463855970
  0.5827018801608792  0.3536849331548111  0.8965416463855970
  0.0827018801608792  0.8536849331548111  0.8965416463855970
  0.5827018801608792  0.8536849331548111  0.8965416463855970
  0.0827018801608793  0.3536849331548111  0.6034583536144030
  0.5827018801608792  0.3536849331548111  0.6034583536144030
  0.0827018801608792  0.8536849331548111  0.6034583536144030
  0.5827018801608792  0.8536849331548111  0.6034583536144030
  0.3327018801608790  0.3963150668451890  0.3965416463855975
  0.8327018801608790  0.3963150668451890  0.3965416463855975
  0.3327018801608790  0.8963150668451889  0.3965416463855976
  0.8327018801608789  0.8963150668451889  0.3965416463855975
  0.1672981198391205  0.1036849331548109  0.8965416463855971
  0.6672981198391205  0.1036849331548109  0.8965416463855970
  0.1672981198391205  0.6036849331548109  0.8965416463855970
  0.6672981198391205  0.6036849331548109  0.8965416463855970
  0.4172981198391210  0.1463150668451892  0.1034583536144026
  0.9172981198391210  0.1463150668451892  0.1034583536144026
  0.4172981198391210  0.6463150668451891  0.1034583536144026
  0.9172981198391210  0.6463150668451891  0.1034583536144026
