Na1 Zn1 S2                              
   1.0000000000000000     
     3.5473395486413541   -0.0000000000004832    0.0000000000000000
    -1.7736697743715204    3.0720861650172107   -0.0000000000000000
    -0.0000000000000000    0.0000000000000000    6.9202101469930639
   Na   Zn   S 
     1     1     2
Direct
  0.0000000000000000  0.0000000000000000  0.5000003193698035
  0.0000000000000000  0.0000000000000000  0.0000000000000000
  0.3333329209082763  0.6666658418165525  0.7920348336221181
  0.6666658883083301  0.3333329209082763  0.2036306766366049

  0.00000000E+00  0.00000000E+00  0.00000000E+00
  0.00000000E+00  0.00000000E+00  0.00000000E+00
  0.00000000E+00  0.00000000E+00  0.00000000E+00
  0.00000000E+00  0.00000000E+00  0.00000000E+00
