Na1 Zn1 S2
1.0
   3.5606337793330960   -0.0000000000007115   -0.0000000000000000
  -1.7803168897177779    3.0835993065206497    0.0000000000000000
  -0.0000000000000000    0.0000000000000000    6.8425018756341141
Na Zn S
1 1 2
direct
   0.0000000000000000    0.0000000000000000    0.5000003193698035 Na
   0.0000000000000000    0.0000000000000000    0.0000000000000000 Zn
   0.3333329209082764    0.6666658418165526    0.7888585424927919 S
   0.6666658883083301    0.3333329209082764    0.2111420962320856 S
