Na3SbS4_9H2O                            
   1.0000000000000000     
    12.3577914894112926    0.0000000000000000    0.0000000000000000
    -0.0000000000000000   12.3577914894112944    0.0000000000000000
    -0.0000000000000000    0.0000000000000000   12.3577914894112908
   Na   Sb   H    S    O 
    12     4    72    16    36
Direct
  0.2579893936380661  0.2579893936380661  0.2579893936380661
  0.9498033211277611  0.0501966788722386  0.5501966788722389
  0.5501966788722389  0.9498033211277611  0.0501966788722386
  0.5976314475790623  0.5976314475790623  0.5976314475790623
  0.9023685524209377  0.4023685524209377  0.0976314475790624
  0.0976314475790624  0.9023685524209378  0.4023685524209377
  0.4023685524209377  0.0976314475790624  0.9023685524209377
  0.7420106063619337  0.7579893936380663  0.2420106063619340
  0.7579893936380663  0.2420106063619340  0.7420106063619337
  0.2420106063619340  0.7420106063619337  0.7579893936380663
  0.4498033211277612  0.4498033211277612  0.4498033211277612
  0.0501966788722386  0.5501966788722389  0.9498033211277611
  0.0641425815098723  0.0641425815098723  0.0641425815098723
  0.4358574184901278  0.9358574184901274  0.5641425815098726
  0.5641425815098726  0.4358574184901278  0.9358574184901274
  0.9358574184901274  0.5641425815098726  0.4358574184901278
  0.4472395401943596  0.6340635551352188  0.8459732225044578
  0.9472395401943599  0.8659364448647812  0.1540267774955422
  0.5527604598056401  0.1340635551352186  0.6540267774955422
  0.8659364448647812  0.1540267774955422  0.9472395401943599
  0.6540267774955422  0.5527604598056401  0.1340635551352186
  0.1540267774955421  0.9472395401943599  0.8659364448647812
  0.6340635551352188  0.8459732225044578  0.4472395401943597
  0.8459732225044578  0.4472395401943596  0.6340635551352188
  0.1340635551352186  0.6540267774955422  0.5527604598056401
  0.3659364448647815  0.3459732225044578  0.0527604598056401
  0.3459732225044578  0.0527604598056401  0.3659364448647815
  0.0527604598056401  0.3659364448647815  0.3459732225044578
  0.4543158972241454  0.7620195593663022  0.7385118060583500
 -0.0456841027758545  0.7379804406336979  0.2614881939416498
  0.5456841027758543  0.2620195593663023  0.7614881939416500
  0.7379804406336979  0.2614881939416500 -0.0456841027758545
  0.7614881939416500  0.5456841027758544  0.2620195593663023
  0.2614881939416498 -0.0456841027758545  0.7379804406336978
  0.7620195593663021  0.7385118060583500  0.4543158972241456
  0.7385118060583500  0.4543158972241456  0.7620195593663022
  0.2620195593663023  0.7614881939416500  0.5456841027758543
  0.2379804406336976  0.2385118060583501  0.0456841027758544
  0.2385118060583501  0.0456841027758544  0.2379804406336976
  0.0456841027758544  0.2379804406336976  0.2385118060583501
  0.3354862174829611  0.2770934127973629  0.6090821742053342
  0.8354862174829616  0.2229065872026372  0.3909178257946587
  0.6645137825170385  0.7770934127973624  0.8909178257946658
  0.2229065872026372  0.3909178257946587  0.8354862174829615
  0.8909178257946658  0.6645137825170384  0.7770934127973624
  0.3909178257946587  0.8354862174829615  0.2229065872026372
  0.2770934127973629  0.6090821742053342  0.3354862174829611
  0.6090821742053342  0.3354862174829611  0.2770934127973629
  0.7770934127973625  0.8909178257946658  0.6645137825170385
  0.7229065872026376  0.1090821742053411  0.1645137825170390
  0.2019849572574100  0.0758783311473827  0.5687241985095211
  0.1090821742053412  0.1645137825170390  0.7229065872026375
  0.2403775402768579  0.3657105522698604  0.5149335492219050
  0.7403775402768579  0.1342894477301396  0.4850664507780948
  0.7596224597231421  0.8657105522698610 -0.0149335492219050
  0.1342894477301396  0.4850664507780948  0.7403775402768579
 -0.0149335492219050  0.7596224597231421  0.8657105522698609
  0.4850664507780948  0.7403775402768579  0.1342894477301396
  0.3657105522698604  0.5149335492219050  0.2403775402768579
  0.5149335492219050  0.2403775402768579  0.3657105522698603
  0.8657105522698610 -0.0149335492219050  0.7596224597231421
  0.6342894477301390  0.0149335492219050  0.2596224597231419
  0.0149335492219050  0.2596224597231419  0.6342894477301390
  0.2596224597231420  0.6342894477301390  0.0149335492219050
  0.5580300776801687  0.6288389975080479  0.3547228219477046
  0.0580300776801683  0.8711610024919521  0.6452771780522951
  0.4419699223198321  0.1288389975080483  0.1452771780522953
  0.8711610024919521  0.6452771780522951  0.0580300776801683
  0.1452771780522953  0.4419699223198321  0.1288389975080484
  0.6452771780522951  0.0580300776801683  0.8711610024919521
  0.6288389975080479  0.3547228219477045  0.5580300776801687
  0.3547228219477045  0.5580300776801687  0.6288389975080479
  0.1288389975080483  0.1452771780522953  0.4419699223198321
  0.3711610024919514  0.8547228219477049  0.9419699223198313
  0.8547228219477049  0.9419699223198313  0.3711610024919513
  0.9419699223198313  0.3711610024919514  0.8547228219477049
  0.4312758014904793  0.7019849572574103  0.4241216688526170
  0.9312758014904789  0.7980150427425897  0.5758783311473832
  0.5687241985095211  0.2019849572574100  0.0758783311473827
  0.7980150427425898  0.5758783311473833  0.9312758014904791
  0.0758783311473827  0.5687241985095209  0.2019849572574100
  0.5758783311473833  0.9312758014904789  0.7980150427425897
  0.7019849572574103  0.4241216688526170  0.4312758014904793
  0.4241216688526170  0.4312758014904793  0.7019849572574103
  0.0687241985095206  0.2980150427425897  0.9241216688526168
  0.9241216688526168  0.0687241985095206  0.2980150427425897
  0.2980150427425897  0.9241216688526167  0.0687241985095206
  0.1645137825170390  0.7229065872026376  0.1090821742053411
  0.0234070816426757  0.4765929183573243  0.5234070816426757
  0.2438149926609207  0.1462480725518925  0.9583630729292451
  0.5234070816426757  0.0234070816426756  0.4765929183573243
  0.9765929183573243  0.9765929183573243  0.9765929183573243
  0.9583630729292451  0.2438149926609207  0.1462480725518925
  0.1462480725518925  0.9583630729292451  0.2438149926609207
  0.3537519274481075  0.0416369270707553  0.7438149926609204
  0.4583630729292448  0.2561850073390790  0.8537519274481075
  0.8537519274481075  0.4583630729292447  0.2561850073390790
  0.5416369270707549  0.7561850073390796  0.6462480725518925
  0.0416369270707553  0.7438149926609204  0.3537519274481074
  0.6462480725518925  0.5416369270707549  0.7561850073390796
  0.7438149926609204  0.3537519274481074  0.0416369270707553
  0.7561850073390796  0.6462480725518925  0.5416369270707549
  0.4765929183573243  0.5234070816426757  0.0234070816426756
  0.2561850073390790  0.8537519274481075  0.4583630729292447
  0.5033705778117706  0.6828279461142930  0.9266805771549059
  0.0033705778117703  0.8171720538857070  0.0733194228450940
  0.4966294221882299  0.1828279461142930  0.5733194228450941
  0.8171720538857070  0.0733194228450940  0.0033705778117703
  0.5733194228450941  0.4966294221882299  0.1828279461142931
  0.0733194228450940  0.0033705778117700  0.8171720538857070
  0.6828279461142930  0.9266805771549059  0.5033705778117705
  0.9266805771549059  0.5033705778117706  0.6828279461142930
  0.1828279461142930  0.5733194228450941  0.4966294221882299
  0.3171720538857069  0.4266805771549061 -0.0033705778117705
  0.4266805771549061 -0.0033705778117705  0.3171720538857067
 -0.0033705778117705  0.3171720538857067  0.4266805771549061
  0.2911759907976239  0.3513205933953798  0.4157020595939969
  0.7911759907976239  0.1486794066046200  0.5842979404060029
  0.7088240092023761  0.8513205933953799  0.0842979404060031
  0.1486794066046200  0.5842979404060029  0.7911759907976241
  0.0842979404060030  0.7088240092023761  0.8513205933953799
  0.5842979404060029  0.7911759907976240  0.1486794066046201
  0.3513205933953798  0.4157020595939969  0.2911759907976239
  0.4157020595939969  0.2911759907976239  0.3513205933953798
  0.8513205933953799  0.0842979404060030  0.7088240092023761
  0.6486794066046201  0.9157020595939971  0.2088240092023760
  0.9157020595939971  0.2088240092023760  0.6486794066046201
  0.2088240092023760  0.6486794066046201  0.9157020595939971
  0.4203573969051493  0.6308396420307948  0.5141533171925028
 -0.0796426030948505  0.8691603579692052  0.4858466828074969
  0.5796426030948504  0.1308396420307947 -0.0141533171925029
  0.8691603579692052  0.4858466828074968 -0.0796426030948504
 -0.0141533171925029  0.5796426030948504  0.1308396420307947
  0.4858466828074969 -0.0796426030948504  0.8691603579692051
  0.6308396420307949  0.5141533171925028  0.4203573969051493
  0.5141533171925028  0.4203573969051493  0.6308396420307948
  0.1308396420307947 -0.0141533171925029  0.5796426030948504
  0.3691603579692053  0.0141533171925030  0.0796426030948506
  0.0141533171925030  0.0796426030948506  0.3691603579692053
  0.0796426030948506  0.3691603579692053  0.0141533171925030

  0.00000000E+00  0.00000000E+00  0.00000000E+00
  0.00000000E+00  0.00000000E+00  0.00000000E+00
  0.00000000E+00  0.00000000E+00  0.00000000E+00
  0.00000000E+00  0.00000000E+00  0.00000000E+00
  0.00000000E+00  0.00000000E+00  0.00000000E+00
  0.00000000E+00  0.00000000E+00  0.00000000E+00
  0.00000000E+00  0.00000000E+00  0.00000000E+00
  0.00000000E+00  0.00000000E+00  0.00000000E+00
  0.00000000E+00  0.00000000E+00  0.00000000E+00
  0.00000000E+00  0.00000000E+00  0.00000000E+00
  0.00000000E+00  0.00000000E+00  0.00000000E+00
  0.00000000E+00  0.00000000E+00  0.00000000E+00
  0.00000000E+00  0.00000000E+00  0.00000000E+00
  0.00000000E+00  0.00000000E+00  0.00000000E+00
  0.00000000E+00  0.00000000E+00  0.00000000E+00
  0.00000000E+00  0.00000000E+00  0.00000000E+00
  0.00000000E+00  0.00000000E+00  0.00000000E+00
  0.00000000E+00  0.00000000E+00  0.00000000E+00
  0.00000000E+00  0.00000000E+00  0.00000000E+00
  0.00000000E+00  0.00000000E+00  0.00000000E+00
  0.00000000E+00  0.00000000E+00  0.00000000E+00
  0.00000000E+00  0.00000000E+00  0.00000000E+00
  0.00000000E+00  0.00000000E+00  0.00000000E+00
  0.00000000E+00  0.00000000E+00  0.00000000E+00
  0.00000000E+00  0.00000000E+00  0.00000000E+00
  0.00000000E+00  0.00000000E+00  0.00000000E+00
  0.00000000E+00  0.00000000E+00  0.00000000E+00
  0.00000000E+00  0.00000000E+00  0.00000000E+00
  0.00000000E+00  0.00000000E+00  0.00000000E+00
  0.00000000E+00  0.00000000E+00  0.00000000E+00
  0.00000000E+00  0.00000000E+00  0.00000000E+00
  0.00000000E+00  0.00000000E+00  0.00000000E+00
  0.00000000E+00  0.00000000E+00  0.00000000E+00
  0.00000000E+00  0.00000000E+00  0.00000000E+00
  0.00000000E+00  0.00000000E+00  0.00000000E+00
  0.00000000E+00  0.00000000E+00  0.00000000E+00
  0.00000000E+00  0.00000000E+00  0.00000000E+00
  0.00000000E+00  0.00000000E+00  0.00000000E+00
  0.00000000E+00  0.00000000E+00  0.00000000E+00
  0.00000000E+00  0.00000000E+00  0.00000000E+00
  0.00000000E+00  0.00000000E+00  0.00000000E+00
  0.00000000E+00  0.00000000E+00  0.00000000E+00
  0.00000000E+00  0.00000000E+00  0.00000000E+00
  0.00000000E+00  0.00000000E+00  0.00000000E+00
  0.00000000E+00  0.00000000E+00  0.00000000E+00
  0.00000000E+00  0.00000000E+00  0.00000000E+00
  0.00000000E+00  0.00000000E+00  0.00000000E+00
  0.00000000E+00  0.00000000E+00  0.00000000E+00
  0.00000000E+00  0.00000000E+00  0.00000000E+00
  0.00000000E+00  0.00000000E+00  0.00000000E+00
  0.00000000E+00  0.00000000E+00  0.00000000E+00
  0.00000000E+00  0.00000000E+00  0.00000000E+00
  0.00000000E+00  0.00000000E+00  0.00000000E+00
  0.00000000E+00  0.00000000E+00  0.00000000E+00
  0.00000000E+00  0.00000000E+00  0.00000000E+00
  0.00000000E+00  0.00000000E+00  0.00000000E+00
  0.00000000E+00  0.00000000E+00  0.00000000E+00
  0.00000000E+00  0.00000000E+00  0.00000000E+00
  0.00000000E+00  0.00000000E+00  0.00000000E+00
  0.00000000E+00  0.00000000E+00  0.00000000E+00
  0.00000000E+00  0.00000000E+00  0.00000000E+00
  0.00000000E+00  0.00000000E+00  0.00000000E+00
  0.00000000E+00  0.00000000E+00  0.00000000E+00
  0.00000000E+00  0.00000000E+00  0.00000000E+00
  0.00000000E+00  0.00000000E+00  0.00000000E+00
  0.00000000E+00  0.00000000E+00  0.00000000E+00
  0.00000000E+00  0.00000000E+00  0.00000000E+00
  0.00000000E+00  0.00000000E+00  0.00000000E+00
  0.00000000E+00  0.00000000E+00  0.00000000E+00
  0.00000000E+00  0.00000000E+00  0.00000000E+00
  0.00000000E+00  0.00000000E+00  0.00000000E+00
  0.00000000E+00  0.00000000E+00  0.00000000E+00
  0.00000000E+00  0.00000000E+00  0.00000000E+00
  0.00000000E+00  0.00000000E+00  0.00000000E+00
  0.00000000E+00  0.00000000E+00  0.00000000E+00
  0.00000000E+00  0.00000000E+00  0.00000000E+00
  0.00000000E+00  0.00000000E+00  0.00000000E+00
  0.00000000E+00  0.00000000E+00  0.00000000E+00
  0.00000000E+00  0.00000000E+00  0.00000000E+00
  0.00000000E+00  0.00000000E+00  0.00000000E+00
  0.00000000E+00  0.00000000E+00  0.00000000E+00
  0.00000000E+00  0.00000000E+00  0.00000000E+00
  0.00000000E+00  0.00000000E+00  0.00000000E+00
  0.00000000E+00  0.00000000E+00  0.00000000E+00
  0.00000000E+00  0.00000000E+00  0.00000000E+00
  0.00000000E+00  0.00000000E+00  0.00000000E+00
  0.00000000E+00  0.00000000E+00  0.00000000E+00
  0.00000000E+00  0.00000000E+00  0.00000000E+00
  0.00000000E+00  0.00000000E+00  0.00000000E+00
  0.00000000E+00  0.00000000E+00  0.00000000E+00
  0.00000000E+00  0.00000000E+00  0.00000000E+00
  0.00000000E+00  0.00000000E+00  0.00000000E+00
  0.00000000E+00  0.00000000E+00  0.00000000E+00
  0.00000000E+00  0.00000000E+00  0.00000000E+00
  0.00000000E+00  0.00000000E+00  0.00000000E+00
  0.00000000E+00  0.00000000E+00  0.00000000E+00
  0.00000000E+00  0.00000000E+00  0.00000000E+00
  0.00000000E+00  0.00000000E+00  0.00000000E+00
  0.00000000E+00  0.00000000E+00  0.00000000E+00
  0.00000000E+00  0.00000000E+00  0.00000000E+00
  0.00000000E+00  0.00000000E+00  0.00000000E+00
  0.00000000E+00  0.00000000E+00  0.00000000E+00
  0.00000000E+00  0.00000000E+00  0.00000000E+00
  0.00000000E+00  0.00000000E+00  0.00000000E+00
  0.00000000E+00  0.00000000E+00  0.00000000E+00
  0.00000000E+00  0.00000000E+00  0.00000000E+00
  0.00000000E+00  0.00000000E+00  0.00000000E+00
  0.00000000E+00  0.00000000E+00  0.00000000E+00
  0.00000000E+00  0.00000000E+00  0.00000000E+00
  0.00000000E+00  0.00000000E+00  0.00000000E+00
  0.00000000E+00  0.00000000E+00  0.00000000E+00
  0.00000000E+00  0.00000000E+00  0.00000000E+00
  0.00000000E+00  0.00000000E+00  0.00000000E+00
  0.00000000E+00  0.00000000E+00  0.00000000E+00
  0.00000000E+00  0.00000000E+00  0.00000000E+00
  0.00000000E+00  0.00000000E+00  0.00000000E+00
  0.00000000E+00  0.00000000E+00  0.00000000E+00
  0.00000000E+00  0.00000000E+00  0.00000000E+00
  0.00000000E+00  0.00000000E+00  0.00000000E+00
  0.00000000E+00  0.00000000E+00  0.00000000E+00
  0.00000000E+00  0.00000000E+00  0.00000000E+00
  0.00000000E+00  0.00000000E+00  0.00000000E+00
  0.00000000E+00  0.00000000E+00  0.00000000E+00
  0.00000000E+00  0.00000000E+00  0.00000000E+00
  0.00000000E+00  0.00000000E+00  0.00000000E+00
  0.00000000E+00  0.00000000E+00  0.00000000E+00
  0.00000000E+00  0.00000000E+00  0.00000000E+00
  0.00000000E+00  0.00000000E+00  0.00000000E+00
  0.00000000E+00  0.00000000E+00  0.00000000E+00
  0.00000000E+00  0.00000000E+00  0.00000000E+00
  0.00000000E+00  0.00000000E+00  0.00000000E+00
  0.00000000E+00  0.00000000E+00  0.00000000E+00
  0.00000000E+00  0.00000000E+00  0.00000000E+00
  0.00000000E+00  0.00000000E+00  0.00000000E+00
  0.00000000E+00  0.00000000E+00  0.00000000E+00
  0.00000000E+00  0.00000000E+00  0.00000000E+00
  0.00000000E+00  0.00000000E+00  0.00000000E+00
  0.00000000E+00  0.00000000E+00  0.00000000E+00
  0.00000000E+00  0.00000000E+00  0.00000000E+00
  0.00000000E+00  0.00000000E+00  0.00000000E+00
