Na3SbS4_9H2O                            
   1.0000000000000000     
    12.4154884240586600   -0.0000000000000000    0.0000000000000000
     0.0000000000000000   12.4154884240586618   -0.0000000000000000
    -0.0000000000000000    0.0000000000000000   12.4154884240586583
   Na   Sb   H    S    O 
    12     4    72    16    36
Direct
  0.2871867258673061  0.2871867258673061  0.2871867258673061
  0.9730199023131152  0.0269800976868853  0.5269800976868848
  0.5269800976868848  0.9730199023131152  0.0269800976868853
  0.6919605379568983  0.6919605379568983  0.6919605379568983
  0.8080394620431017  0.3080394620431016  0.1919605379568985
  0.1919605379568985  0.8080394620431017  0.3080394620431016
  0.3080394620431016  0.1919605379568985  0.8080394620431017
  0.7128132741326936  0.7871867258673064  0.2128132741326935
  0.7871867258673064  0.2128132741326935  0.7128132741326936
  0.2128132741326935  0.7128132741326936  0.7871867258673064
  0.4730199023131146  0.4730199023131146  0.4730199023131146
  0.0269800976868853  0.5269800976868848  0.9730199023131152
  0.0941162199617127  0.0941162199617127  0.0941162199617127
  0.4058837800382871  0.9058837800382878  0.5941162199617122
  0.5941162199617122  0.4058837800382871  0.9058837800382878
  0.9058837800382878  0.5941162199617122  0.4058837800382871
  0.4614342629597348  0.6168228221055847  0.8577286218483089
  0.9614342629597347  0.8831771778944153  0.1422713781516909
  0.5385657370402653  0.1168228221055848  0.6422713781516911
  0.8831771778944153  0.1422713781516909  0.9614342629597346
  0.6422713781516911  0.5385657370402653  0.1168228221055848
  0.1422713781516909  0.9614342629597347  0.8831771778944153
  0.6168228221055847  0.8577286218483089  0.4614342629597348
  0.8577286218483089  0.4614342629597348  0.6168228221055847
  0.1168228221055848  0.6422713781516911  0.5385657370402654
  0.3831771778944153  0.3577286218483090  0.0385657370402650
  0.3577286218483090  0.0385657370402650  0.3831771778944154
  0.0385657370402650  0.3831771778944153  0.3577286218483090
  0.4410269268017930  0.7474631110922678  0.7616099795807597
  0.9410269268017929  0.7525368889077321  0.2383900204192405
  0.5589730731982071  0.2474631110922672  0.7383900204192402
  0.7525368889077322  0.2383900204192404  0.9410269268017929
  0.7383900204192403  0.5589730731982071  0.2474631110922672
  0.2383900204192405  0.9410269268017929  0.7525368889077321
  0.7474631110922678  0.7616099795807597  0.4410269268017930
  0.7616099795807597  0.4410269268017930  0.7474631110922678
  0.2474631110922672  0.7383900204192402  0.5589730731982071
  0.2525368889077332  0.2616099795807596  0.0589730731982071
  0.2616099795807596  0.0589730731982071  0.2525368889077332
  0.0589730731982071  0.2525368889077332  0.2616099795807596
  0.3616036880530403  0.2954286269514658  0.5919131210001647
  0.8616036880530408  0.2045713730485340  0.4080868789998288
  0.6383963119469592  0.7954286269514651  0.9080868789998353
  0.2045713730485340  0.4080868789998288  0.8616036880530408
  0.9080868789998353  0.6383963119469592  0.7954286269514651
  0.4080868789998288  0.8616036880530408  0.2045713730485340
  0.2954286269514658  0.5919131210001647  0.3616036880530403
  0.5919131210001647  0.3616036880530403  0.2954286269514658
  0.7954286269514651  0.9080868789998353  0.6383963119469592
  0.7045713730485349  0.0919131210001713  0.1383963119469593
  0.2169566531079627  0.0872852108399732  0.5547605936854568
  0.0919131210001713  0.1383963119469593  0.7045713730485349
  0.2344097307588158  0.3615952328109144  0.5140138179281850
  0.7344097307588160  0.1384047671890858  0.4859861820718159
  0.7655902692411840  0.8615952328109141  0.9859861820718151
  0.1384047671890858  0.4859861820718159  0.7344097307588160
  0.9859861820718150  0.7655902692411840  0.8615952328109141
  0.4859861820718159  0.7344097307588160  0.1384047671890858
  0.3615952328109144  0.5140138179281849  0.2344097307588158
  0.5140138179281849  0.2344097307588158  0.3615952328109144
  0.8615952328109141  0.9859861820718150  0.7655902692411839
  0.6384047671890859  0.0140138179281845  0.2655902692411843
  0.0140138179281845  0.2655902692411843  0.6384047671890859
  0.2655902692411843  0.6384047671890859  0.0140138179281845
  0.5664275388411865  0.6301903777934432  0.3538903483391718
  0.0664275388411787  0.8698096222065568  0.6461096516608283
  0.4335724611588213  0.1301903777934437  0.1461096516608280
  0.8698096222065568  0.6461096516608283  0.0664275388411788
  0.1461096516608280  0.4335724611588213  0.1301903777934437
  0.6461096516608283  0.0664275388411788  0.8698096222065568
  0.6301903777934432  0.3538903483391718  0.5664275388411865
  0.3538903483391718  0.5664275388411865  0.6301903777934432
  0.1301903777934437  0.1461096516608280  0.4335724611588213
  0.3698096222065563  0.8538903483391717  0.9335724611588135
  0.8538903483391717  0.9335724611588135  0.3698096222065563
  0.9335724611588135  0.3698096222065563  0.8538903483391717
  0.4452394063145435  0.7169566531079632  0.4127147891600199
  0.9452394063145432  0.7830433468920368  0.5872852108399802
  0.5547605936854568  0.2169566531079627  0.0872852108399732
  0.7830433468920368  0.5872852108399802  0.9452394063145432
  0.0872852108399732  0.5547605936854568  0.2169566531079627
  0.5872852108399802  0.9452394063145432  0.7830433468920368
  0.7169566531079632  0.4127147891600199  0.4452394063145435
  0.4127147891600199  0.4452394063145435  0.7169566531079632
  0.0547605936854563  0.2830433468920372  0.9127147891600198
  0.9127147891600198  0.0547605936854563  0.2830433468920372
  0.2830433468920372  0.9127147891600198  0.0547605936854563
  0.1383963119469593  0.7045713730485349  0.0919131210001713
 -0.0054420475714753  0.5054420475714752  0.4945579524285252
  0.2455678571761924  0.1603652704410491  0.9775524919998863
  0.4945579524285252 -0.0054420475714753  0.5054420475714752
  0.0054420475714747  0.0054420475714747  0.0054420475714747
  0.9775524919998863  0.2455678571761924  0.1603652704410491
  0.1603652704410491  0.9775524919998863  0.2455678571761924
  0.3396347295589516  0.0224475080001138  0.7455678571761931
  0.4775524919998862  0.2544321428238072  0.8396347295589504
  0.8396347295589504  0.4775524919998862  0.2544321428238072
  0.5224475080001137  0.7544321428238069  0.6603652704410496
  0.0224475080001138  0.7455678571761931  0.3396347295589516
  0.6603652704410496  0.5224475080001137  0.7544321428238069
  0.7455678571761931  0.3396347295589516  0.0224475080001138
  0.7544321428238069  0.6603652704410496  0.5224475080001137
  0.5054420475714752  0.4945579524285252 -0.0054420475714753
  0.2544321428238072  0.8396347295589504  0.4775524919998862
  0.5335904472137865  0.6623610278415981  0.9272539417196354
  0.0335904472137863  0.8376389721584019  0.0727460582803649
  0.4664095527862141  0.1623610278415986  0.5727460582803646
  0.8376389721584019  0.0727460582803649  0.0335904472137863
  0.5727460582803646  0.4664095527862141  0.1623610278415986
  0.0727460582803649  0.0335904472137863  0.8376389721584019
  0.6623610278415981  0.9272539417196354  0.5335904472137866
  0.9272539417196354  0.5335904472137868  0.6623610278415981
  0.1623610278415986  0.5727460582803646  0.4664095527862141
  0.3376389721584011  0.4272539417196350  0.9664095527862134
  0.4272539417196349  0.9664095527862134  0.3376389721584011
  0.9664095527862134  0.3376389721584011  0.4272539417196349
  0.2811786295028560  0.4526501919363952  0.4688602112566760
  0.7811786295028560  0.0473498080636047  0.5311397887433237
  0.7188213704971440  0.9526501919363951  0.0311397887433238
  0.0473498080636048  0.5311397887433236  0.7811786295028560
  0.0311397887433238  0.7188213704971440  0.9526501919363951
  0.5311397887433236  0.7811786295028560  0.0473498080636047
  0.4526501919363952  0.4688602112566760  0.2811786295028560
  0.4688602112566760  0.2811786295028560  0.4526501919363952
  0.9526501919363951  0.0311397887433238  0.7188213704971440
  0.5473498080636049  0.9688602112566764  0.2188213704971442
  0.9688602112566764  0.2188213704971442  0.5473498080636049
  0.2188213704971442  0.5473498080636049  0.9688602112566763
  0.4363224226680918  0.6700311006051132  0.5139823007041794
  0.9363224226680920  0.8299688993948866  0.4860176992958206
  0.5636775773319080  0.1700311006051125  0.9860176992958205
  0.8299688993948867  0.4860176992958206  0.9363224226680920
  0.9860176992958205  0.5636775773319080  0.1700311006051125
  0.4860176992958206  0.9363224226680920  0.8299688993948867
  0.6700311006051133  0.5139823007041794  0.4363224226680918
  0.5139823007041794  0.4363224226680918  0.6700311006051133
  0.1700311006051125  0.9860176992958205  0.5636775773319080
  0.3299688993948878  0.0139823007041796  0.0636775773319082
  0.0139823007041796  0.0636775773319082  0.3299688993948878
  0.0636775773319082  0.3299688993948878  0.0139823007041796

  0.00000000E+00  0.00000000E+00  0.00000000E+00
  0.00000000E+00  0.00000000E+00  0.00000000E+00
  0.00000000E+00  0.00000000E+00  0.00000000E+00
  0.00000000E+00  0.00000000E+00  0.00000000E+00
  0.00000000E+00  0.00000000E+00  0.00000000E+00
  0.00000000E+00  0.00000000E+00  0.00000000E+00
  0.00000000E+00  0.00000000E+00  0.00000000E+00
  0.00000000E+00  0.00000000E+00  0.00000000E+00
  0.00000000E+00  0.00000000E+00  0.00000000E+00
  0.00000000E+00  0.00000000E+00  0.00000000E+00
  0.00000000E+00  0.00000000E+00  0.00000000E+00
  0.00000000E+00  0.00000000E+00  0.00000000E+00
  0.00000000E+00  0.00000000E+00  0.00000000E+00
  0.00000000E+00  0.00000000E+00  0.00000000E+00
  0.00000000E+00  0.00000000E+00  0.00000000E+00
  0.00000000E+00  0.00000000E+00  0.00000000E+00
  0.00000000E+00  0.00000000E+00  0.00000000E+00
  0.00000000E+00  0.00000000E+00  0.00000000E+00
  0.00000000E+00  0.00000000E+00  0.00000000E+00
  0.00000000E+00  0.00000000E+00  0.00000000E+00
  0.00000000E+00  0.00000000E+00  0.00000000E+00
  0.00000000E+00  0.00000000E+00  0.00000000E+00
  0.00000000E+00  0.00000000E+00  0.00000000E+00
  0.00000000E+00  0.00000000E+00  0.00000000E+00
  0.00000000E+00  0.00000000E+00  0.00000000E+00
  0.00000000E+00  0.00000000E+00  0.00000000E+00
  0.00000000E+00  0.00000000E+00  0.00000000E+00
  0.00000000E+00  0.00000000E+00  0.00000000E+00
  0.00000000E+00  0.00000000E+00  0.00000000E+00
  0.00000000E+00  0.00000000E+00  0.00000000E+00
  0.00000000E+00  0.00000000E+00  0.00000000E+00
  0.00000000E+00  0.00000000E+00  0.00000000E+00
  0.00000000E+00  0.00000000E+00  0.00000000E+00
  0.00000000E+00  0.00000000E+00  0.00000000E+00
  0.00000000E+00  0.00000000E+00  0.00000000E+00
  0.00000000E+00  0.00000000E+00  0.00000000E+00
  0.00000000E+00  0.00000000E+00  0.00000000E+00
  0.00000000E+00  0.00000000E+00  0.00000000E+00
  0.00000000E+00  0.00000000E+00  0.00000000E+00
  0.00000000E+00  0.00000000E+00  0.00000000E+00
  0.00000000E+00  0.00000000E+00  0.00000000E+00
  0.00000000E+00  0.00000000E+00  0.00000000E+00
  0.00000000E+00  0.00000000E+00  0.00000000E+00
  0.00000000E+00  0.00000000E+00  0.00000000E+00
  0.00000000E+00  0.00000000E+00  0.00000000E+00
  0.00000000E+00  0.00000000E+00  0.00000000E+00
  0.00000000E+00  0.00000000E+00  0.00000000E+00
  0.00000000E+00  0.00000000E+00  0.00000000E+00
  0.00000000E+00  0.00000000E+00  0.00000000E+00
  0.00000000E+00  0.00000000E+00  0.00000000E+00
  0.00000000E+00  0.00000000E+00  0.00000000E+00
  0.00000000E+00  0.00000000E+00  0.00000000E+00
  0.00000000E+00  0.00000000E+00  0.00000000E+00
  0.00000000E+00  0.00000000E+00  0.00000000E+00
  0.00000000E+00  0.00000000E+00  0.00000000E+00
  0.00000000E+00  0.00000000E+00  0.00000000E+00
  0.00000000E+00  0.00000000E+00  0.00000000E+00
  0.00000000E+00  0.00000000E+00  0.00000000E+00
  0.00000000E+00  0.00000000E+00  0.00000000E+00
  0.00000000E+00  0.00000000E+00  0.00000000E+00
  0.00000000E+00  0.00000000E+00  0.00000000E+00
  0.00000000E+00  0.00000000E+00  0.00000000E+00
  0.00000000E+00  0.00000000E+00  0.00000000E+00
  0.00000000E+00  0.00000000E+00  0.00000000E+00
  0.00000000E+00  0.00000000E+00  0.00000000E+00
  0.00000000E+00  0.00000000E+00  0.00000000E+00
  0.00000000E+00  0.00000000E+00  0.00000000E+00
  0.00000000E+00  0.00000000E+00  0.00000000E+00
  0.00000000E+00  0.00000000E+00  0.00000000E+00
  0.00000000E+00  0.00000000E+00  0.00000000E+00
  0.00000000E+00  0.00000000E+00  0.00000000E+00
  0.00000000E+00  0.00000000E+00  0.00000000E+00
  0.00000000E+00  0.00000000E+00  0.00000000E+00
  0.00000000E+00  0.00000000E+00  0.00000000E+00
  0.00000000E+00  0.00000000E+00  0.00000000E+00
  0.00000000E+00  0.00000000E+00  0.00000000E+00
  0.00000000E+00  0.00000000E+00  0.00000000E+00
  0.00000000E+00  0.00000000E+00  0.00000000E+00
  0.00000000E+00  0.00000000E+00  0.00000000E+00
  0.00000000E+00  0.00000000E+00  0.00000000E+00
  0.00000000E+00  0.00000000E+00  0.00000000E+00
  0.00000000E+00  0.00000000E+00  0.00000000E+00
  0.00000000E+00  0.00000000E+00  0.00000000E+00
  0.00000000E+00  0.00000000E+00  0.00000000E+00
  0.00000000E+00  0.00000000E+00  0.00000000E+00
  0.00000000E+00  0.00000000E+00  0.00000000E+00
  0.00000000E+00  0.00000000E+00  0.00000000E+00
  0.00000000E+00  0.00000000E+00  0.00000000E+00
  0.00000000E+00  0.00000000E+00  0.00000000E+00
  0.00000000E+00  0.00000000E+00  0.00000000E+00
  0.00000000E+00  0.00000000E+00  0.00000000E+00
  0.00000000E+00  0.00000000E+00  0.00000000E+00
  0.00000000E+00  0.00000000E+00  0.00000000E+00
  0.00000000E+00  0.00000000E+00  0.00000000E+00
  0.00000000E+00  0.00000000E+00  0.00000000E+00
  0.00000000E+00  0.00000000E+00  0.00000000E+00
  0.00000000E+00  0.00000000E+00  0.00000000E+00
  0.00000000E+00  0.00000000E+00  0.00000000E+00
  0.00000000E+00  0.00000000E+00  0.00000000E+00
  0.00000000E+00  0.00000000E+00  0.00000000E+00
  0.00000000E+00  0.00000000E+00  0.00000000E+00
  0.00000000E+00  0.00000000E+00  0.00000000E+00
  0.00000000E+00  0.00000000E+00  0.00000000E+00
  0.00000000E+00  0.00000000E+00  0.00000000E+00
  0.00000000E+00  0.00000000E+00  0.00000000E+00
  0.00000000E+00  0.00000000E+00  0.00000000E+00
  0.00000000E+00  0.00000000E+00  0.00000000E+00
  0.00000000E+00  0.00000000E+00  0.00000000E+00
  0.00000000E+00  0.00000000E+00  0.00000000E+00
  0.00000000E+00  0.00000000E+00  0.00000000E+00
  0.00000000E+00  0.00000000E+00  0.00000000E+00
  0.00000000E+00  0.00000000E+00  0.00000000E+00
  0.00000000E+00  0.00000000E+00  0.00000000E+00
  0.00000000E+00  0.00000000E+00  0.00000000E+00
  0.00000000E+00  0.00000000E+00  0.00000000E+00
  0.00000000E+00  0.00000000E+00  0.00000000E+00
  0.00000000E+00  0.00000000E+00  0.00000000E+00
  0.00000000E+00  0.00000000E+00  0.00000000E+00
  0.00000000E+00  0.00000000E+00  0.00000000E+00
  0.00000000E+00  0.00000000E+00  0.00000000E+00
  0.00000000E+00  0.00000000E+00  0.00000000E+00
  0.00000000E+00  0.00000000E+00  0.00000000E+00
  0.00000000E+00  0.00000000E+00  0.00000000E+00
  0.00000000E+00  0.00000000E+00  0.00000000E+00
  0.00000000E+00  0.00000000E+00  0.00000000E+00
  0.00000000E+00  0.00000000E+00  0.00000000E+00
  0.00000000E+00  0.00000000E+00  0.00000000E+00
  0.00000000E+00  0.00000000E+00  0.00000000E+00
  0.00000000E+00  0.00000000E+00  0.00000000E+00
  0.00000000E+00  0.00000000E+00  0.00000000E+00
  0.00000000E+00  0.00000000E+00  0.00000000E+00
  0.00000000E+00  0.00000000E+00  0.00000000E+00
  0.00000000E+00  0.00000000E+00  0.00000000E+00
  0.00000000E+00  0.00000000E+00  0.00000000E+00
  0.00000000E+00  0.00000000E+00  0.00000000E+00
  0.00000000E+00  0.00000000E+00  0.00000000E+00
  0.00000000E+00  0.00000000E+00  0.00000000E+00
  0.00000000E+00  0.00000000E+00  0.00000000E+00
  0.00000000E+00  0.00000000E+00  0.00000000E+00
  0.00000000E+00  0.00000000E+00  0.00000000E+00
