Na3SbS4_9H2O                            
   1.0000000000000000     
    12.4653885554354087    0.0000000000000000    0.0000000000000000
     0.0000000000000000   12.4653885554354105   -0.0000000000000000
    -0.0000000000000000    0.0000000000000000   12.4653885554354069
   Na   Sb   H    S    O 
    12     4    72    16    36
Direct
  0.2938883144227945  0.2938883144227944  0.2938883144227944
  0.9754313495620551  0.0245686504379450  0.5245686504379449
  0.5245686504379449  0.9754313495620551  0.0245686504379451
  0.6742386300444916  0.6742386300444916  0.6742386300444916
  0.8257613699555084  0.3257613699555087  0.1742386300444913
  0.1742386300444913  0.8257613699555084  0.3257613699555087
  0.3257613699555087  0.1742386300444913  0.8257613699555084
  0.7061116855772065  0.7938883144227935  0.2061116855772057
  0.7938883144227935  0.2061116855772057  0.7061116855772065
  0.2061116855772057  0.7061116855772065  0.7938883144227935
  0.4754313495620546  0.4754313495620546  0.4754313495620546
  0.0245686504379451  0.5245686504379449  0.9754313495620551
  0.1021423636934209  0.1021423636934208  0.1021423636934208
  0.3978576363065791  0.8978576363065780  0.6021423636934220
  0.6021423636934220  0.3978576363065791  0.8978576363065780
  0.8978576363065780  0.6021423636934220  0.3978576363065791
  0.4666820160645935  0.6119123701567407  0.8612801501866768
  0.9666820160645937  0.8880876298432593  0.1387198498133231
  0.5333179839354063  0.1119123701567407  0.6387198498133232
  0.8880876298432593  0.1387198498133231  0.9666820160645937
  0.6387198498133232  0.5333179839354063  0.1119123701567407
  0.1387198498133231  0.9666820160645937  0.8880876298432593
  0.6119123701567407  0.8612801501866768  0.4666820160645935
  0.8612801501866768  0.4666820160645935  0.6119123701567407
  0.1119123701567407  0.6387198498133232  0.5333179839354063
  0.3880876298432593  0.3612801501866773  0.0333179839354064
  0.3612801501866772  0.0333179839354064  0.3880876298432593
  0.0333179839354064  0.3880876298432593  0.3612801501866773
  0.4302775078037672  0.7425608158732729  0.7723056937321652
  0.9302775078037679  0.7574391841267271  0.2276943062678348
  0.5697224921962321  0.2425608158732736  0.7276943062678348
  0.7574391841267271  0.2276943062678348  0.9302775078037678
  0.7276943062678348  0.5697224921962322  0.2425608158732737
  0.2276943062678348  0.9302775078037679  0.7574391841267271
  0.7425608158732729  0.7723056937321652  0.4302775078037672
  0.7723056937321652  0.4302775078037672  0.7425608158732729
  0.2425608158732736  0.7276943062678348  0.5697224921962322
  0.2574391841267262  0.2723056937321648  0.0697224921962329
  0.2723056937321648  0.0697224921962329  0.2574391841267262
  0.0697224921962329  0.2574391841267262  0.2723056937321648
  0.3541900075593076  0.2937852210377923  0.5905356369829243
  0.8541900075593080  0.2062147789622082  0.4094643630170697
  0.6458099924406921  0.7937852210377911  0.9094643630170757
  0.2062147789622082  0.4094643630170697  0.8541900075593080
  0.9094643630170757  0.6458099924406920  0.7937852210377911
  0.4094643630170697  0.8541900075593080  0.2062147789622082
  0.2937852210377923  0.5905356369829242  0.3541900075593076
  0.5905356369829243  0.3541900075593076  0.2937852210377923
  0.7937852210377911  0.9094643630170758  0.6458099924406920
  0.7062147789622089  0.0905356369829305  0.1458099924406925
  0.2219248037885667  0.0883285555097968  0.5630471055998618
  0.0905356369829305  0.1458099924406925  0.7062147789622089
  0.2329049775719074  0.3686014244712858  0.5141244874627782
  0.7329049775719069  0.1313985755287145  0.4858755125372215
  0.7670950224280931  0.8686014244712864  0.9858755125372218
  0.1313985755287145  0.4858755125372215  0.7329049775719069
  0.9858755125372218  0.7670950224280931  0.8686014244712864
  0.4858755125372215  0.7329049775719069  0.1313985755287145
  0.3686014244712858  0.5141244874627782  0.2329049775719074
  0.5141244874627782  0.2329049775719074  0.3686014244712858
  0.8686014244712863  0.9858755125372218  0.7670950224280931
  0.6313985755287137  0.0141244874627785  0.2670950224280921
  0.0141244874627785  0.2670950224280921  0.6313985755287136
  0.2670950224280921  0.6313985755287137  0.0141244874627785
  0.5595422973403823  0.6354391635802560  0.3562864935918470
  0.0595422973403748  0.8645608364197440  0.6437135064081528
  0.4404577026596250  0.1354391635802556  0.1437135064081530
  0.8645608364197440  0.6437135064081528  0.0595422973403748
  0.1437135064081530  0.4404577026596250  0.1354391635802556
  0.6437135064081528  0.0595422973403748  0.8645608364197440
  0.6354391635802560  0.3562864935918470  0.5595422973403823
  0.3562864935918470  0.5595422973403823  0.6354391635802560
  0.1354391635802556  0.1437135064081530  0.4404577026596250
  0.3645608364197445  0.8562864935918472  0.9404577026596177
  0.8562864935918472  0.9404577026596177  0.3645608364197445
  0.9404577026596177  0.3645608364197445  0.8562864935918472
  0.4369528944001382  0.7219248037885663  0.4116714444901962
  0.9369528944001382  0.7780751962114337  0.5883285555098033
  0.5630471055998618  0.2219248037885667  0.0883285555097968
  0.7780751962114336  0.5883285555098033  0.9369528944001382
  0.0883285555097968  0.5630471055998618  0.2219248037885667
  0.5883285555098033  0.9369528944001382  0.7780751962114336
  0.7219248037885664  0.4116714444901962  0.4369528944001382
  0.4116714444901962  0.4369528944001382  0.7219248037885664
  0.0630471055998621  0.2780751962114330  0.9116714444901967
  0.9116714444901967  0.0630471055998621  0.2780751962114330
  0.2780751962114330  0.9116714444901967  0.0630471055998621
  0.1458099924406925  0.7062147789622089  0.0905356369829305
 -0.0131886321100397  0.5131886321100396  0.4868113678899602
  0.2416692665492106  0.1721150762726371  0.9870569674508908
  0.4868113678899602 -0.0131886321100397  0.5131886321100396
  0.0131886321100397  0.0131886321100397  0.0131886321100397
  0.9870569674508908  0.2416692665492105  0.1721150762726370
  0.1721150762726370  0.9870569674508908  0.2416692665492105
  0.3278849237273627  0.0129430325491090  0.7416692665492104
  0.4870569674508907  0.2583307334507897  0.8278849237273631
  0.8278849237273631  0.4870569674508907  0.2583307334507897
  0.5129430325491092  0.7583307334507896  0.6721150762726369
  0.0129430325491090  0.7416692665492104  0.3278849237273627
  0.6721150762726369  0.5129430325491092  0.7583307334507896
  0.7416692665492103  0.3278849237273627  0.0129430325491089
  0.7583307334507897  0.6721150762726369  0.5129430325491092
  0.5131886321100396  0.4868113678899602 -0.0131886321100397
  0.2583307334507896  0.8278849237273631  0.4870569674508908
  0.5327040319295204  0.6597553307355778  0.9341042138736010
  0.0327040319295201  0.8402446692644222  0.0658957861263991
  0.4672959680704799  0.1597553307355782  0.5658957861263990
  0.8402446692644222  0.0658957861263991  0.0327040319295201
  0.5658957861263990  0.4672959680704799  0.1597553307355782
  0.0658957861263991  0.0327040319295201  0.8402446692644222
  0.6597553307355778  0.9341042138736010  0.5327040319295204
  0.9341042138736010  0.5327040319295204  0.6597553307355778
  0.1597553307355782  0.5658957861263990  0.4672959680704799
  0.3402446692644217  0.4341042138736009  0.9672959680704796
  0.4341042138736009  0.9672959680704796  0.3402446692644217
  0.9672959680704796  0.3402446692644217  0.4341042138736009
  0.2836895443187142  0.4578544704819706  0.4705037749798454
  0.7836895443187146  0.0421455295180290  0.5294962250201553
  0.7163104556812854  0.9578544704819713  0.0294962250201546
  0.0421455295180290  0.5294962250201551  0.7836895443187146
  0.0294962250201546  0.7163104556812854  0.9578544704819713
  0.5294962250201551  0.7836895443187146  0.0421455295180290
  0.4578544704819706  0.4705037749798454  0.2836895443187142
  0.4705037749798454  0.2836895443187142  0.4578544704819706
  0.9578544704819714  0.0294962250201546  0.7163104556812854
  0.5421455295180287  0.9705037749798449  0.2163104556812856
  0.9705037749798449  0.2163104556812856  0.5421455295180287
  0.2163104556812856  0.5421455295180286  0.9705037749798447
  0.4246648767198870  0.6740936093396654  0.5118920403125313
  0.9246648767198874  0.8259063906603347  0.4881079596874675
  0.5753351232801126  0.1740936093396655  0.9881079596874687
  0.8259063906603347  0.4881079596874676  0.9246648767198874
  0.9881079596874687  0.5753351232801126  0.1740936093396655
  0.4881079596874676  0.9246648767198874  0.8259063906603347
  0.6740936093396654  0.5118920403125313  0.4246648767198870
  0.5118920403125313  0.4246648767198870  0.6740936093396653
  0.1740936093396655  0.9881079596874687  0.5753351232801126
  0.3259063906603345  0.0118920403125325  0.0753351232801129
  0.0118920403125325  0.0753351232801129  0.3259063906603345
  0.0753351232801129  0.3259063906603345  0.0118920403125325

  0.00000000E+00  0.00000000E+00  0.00000000E+00
  0.00000000E+00  0.00000000E+00  0.00000000E+00
  0.00000000E+00  0.00000000E+00  0.00000000E+00
  0.00000000E+00  0.00000000E+00  0.00000000E+00
  0.00000000E+00  0.00000000E+00  0.00000000E+00
  0.00000000E+00  0.00000000E+00  0.00000000E+00
  0.00000000E+00  0.00000000E+00  0.00000000E+00
  0.00000000E+00  0.00000000E+00  0.00000000E+00
  0.00000000E+00  0.00000000E+00  0.00000000E+00
  0.00000000E+00  0.00000000E+00  0.00000000E+00
  0.00000000E+00  0.00000000E+00  0.00000000E+00
  0.00000000E+00  0.00000000E+00  0.00000000E+00
  0.00000000E+00  0.00000000E+00  0.00000000E+00
  0.00000000E+00  0.00000000E+00  0.00000000E+00
  0.00000000E+00  0.00000000E+00  0.00000000E+00
  0.00000000E+00  0.00000000E+00  0.00000000E+00
  0.00000000E+00  0.00000000E+00  0.00000000E+00
  0.00000000E+00  0.00000000E+00  0.00000000E+00
  0.00000000E+00  0.00000000E+00  0.00000000E+00
  0.00000000E+00  0.00000000E+00  0.00000000E+00
  0.00000000E+00  0.00000000E+00  0.00000000E+00
  0.00000000E+00  0.00000000E+00  0.00000000E+00
  0.00000000E+00  0.00000000E+00  0.00000000E+00
  0.00000000E+00  0.00000000E+00  0.00000000E+00
  0.00000000E+00  0.00000000E+00  0.00000000E+00
  0.00000000E+00  0.00000000E+00  0.00000000E+00
  0.00000000E+00  0.00000000E+00  0.00000000E+00
  0.00000000E+00  0.00000000E+00  0.00000000E+00
  0.00000000E+00  0.00000000E+00  0.00000000E+00
  0.00000000E+00  0.00000000E+00  0.00000000E+00
  0.00000000E+00  0.00000000E+00  0.00000000E+00
  0.00000000E+00  0.00000000E+00  0.00000000E+00
  0.00000000E+00  0.00000000E+00  0.00000000E+00
  0.00000000E+00  0.00000000E+00  0.00000000E+00
  0.00000000E+00  0.00000000E+00  0.00000000E+00
  0.00000000E+00  0.00000000E+00  0.00000000E+00
  0.00000000E+00  0.00000000E+00  0.00000000E+00
  0.00000000E+00  0.00000000E+00  0.00000000E+00
  0.00000000E+00  0.00000000E+00  0.00000000E+00
  0.00000000E+00  0.00000000E+00  0.00000000E+00
  0.00000000E+00  0.00000000E+00  0.00000000E+00
  0.00000000E+00  0.00000000E+00  0.00000000E+00
  0.00000000E+00  0.00000000E+00  0.00000000E+00
  0.00000000E+00  0.00000000E+00  0.00000000E+00
  0.00000000E+00  0.00000000E+00  0.00000000E+00
  0.00000000E+00  0.00000000E+00  0.00000000E+00
  0.00000000E+00  0.00000000E+00  0.00000000E+00
  0.00000000E+00  0.00000000E+00  0.00000000E+00
  0.00000000E+00  0.00000000E+00  0.00000000E+00
  0.00000000E+00  0.00000000E+00  0.00000000E+00
  0.00000000E+00  0.00000000E+00  0.00000000E+00
  0.00000000E+00  0.00000000E+00  0.00000000E+00
  0.00000000E+00  0.00000000E+00  0.00000000E+00
  0.00000000E+00  0.00000000E+00  0.00000000E+00
  0.00000000E+00  0.00000000E+00  0.00000000E+00
  0.00000000E+00  0.00000000E+00  0.00000000E+00
  0.00000000E+00  0.00000000E+00  0.00000000E+00
  0.00000000E+00  0.00000000E+00  0.00000000E+00
  0.00000000E+00  0.00000000E+00  0.00000000E+00
  0.00000000E+00  0.00000000E+00  0.00000000E+00
  0.00000000E+00  0.00000000E+00  0.00000000E+00
  0.00000000E+00  0.00000000E+00  0.00000000E+00
  0.00000000E+00  0.00000000E+00  0.00000000E+00
  0.00000000E+00  0.00000000E+00  0.00000000E+00
  0.00000000E+00  0.00000000E+00  0.00000000E+00
  0.00000000E+00  0.00000000E+00  0.00000000E+00
  0.00000000E+00  0.00000000E+00  0.00000000E+00
  0.00000000E+00  0.00000000E+00  0.00000000E+00
  0.00000000E+00  0.00000000E+00  0.00000000E+00
  0.00000000E+00  0.00000000E+00  0.00000000E+00
  0.00000000E+00  0.00000000E+00  0.00000000E+00
  0.00000000E+00  0.00000000E+00  0.00000000E+00
  0.00000000E+00  0.00000000E+00  0.00000000E+00
  0.00000000E+00  0.00000000E+00  0.00000000E+00
  0.00000000E+00  0.00000000E+00  0.00000000E+00
  0.00000000E+00  0.00000000E+00  0.00000000E+00
  0.00000000E+00  0.00000000E+00  0.00000000E+00
  0.00000000E+00  0.00000000E+00  0.00000000E+00
  0.00000000E+00  0.00000000E+00  0.00000000E+00
  0.00000000E+00  0.00000000E+00  0.00000000E+00
  0.00000000E+00  0.00000000E+00  0.00000000E+00
  0.00000000E+00  0.00000000E+00  0.00000000E+00
  0.00000000E+00  0.00000000E+00  0.00000000E+00
  0.00000000E+00  0.00000000E+00  0.00000000E+00
  0.00000000E+00  0.00000000E+00  0.00000000E+00
  0.00000000E+00  0.00000000E+00  0.00000000E+00
  0.00000000E+00  0.00000000E+00  0.00000000E+00
  0.00000000E+00  0.00000000E+00  0.00000000E+00
  0.00000000E+00  0.00000000E+00  0.00000000E+00
  0.00000000E+00  0.00000000E+00  0.00000000E+00
  0.00000000E+00  0.00000000E+00  0.00000000E+00
  0.00000000E+00  0.00000000E+00  0.00000000E+00
  0.00000000E+00  0.00000000E+00  0.00000000E+00
  0.00000000E+00  0.00000000E+00  0.00000000E+00
  0.00000000E+00  0.00000000E+00  0.00000000E+00
  0.00000000E+00  0.00000000E+00  0.00000000E+00
  0.00000000E+00  0.00000000E+00  0.00000000E+00
  0.00000000E+00  0.00000000E+00  0.00000000E+00
  0.00000000E+00  0.00000000E+00  0.00000000E+00
  0.00000000E+00  0.00000000E+00  0.00000000E+00
  0.00000000E+00  0.00000000E+00  0.00000000E+00
  0.00000000E+00  0.00000000E+00  0.00000000E+00
  0.00000000E+00  0.00000000E+00  0.00000000E+00
  0.00000000E+00  0.00000000E+00  0.00000000E+00
  0.00000000E+00  0.00000000E+00  0.00000000E+00
  0.00000000E+00  0.00000000E+00  0.00000000E+00
  0.00000000E+00  0.00000000E+00  0.00000000E+00
  0.00000000E+00  0.00000000E+00  0.00000000E+00
  0.00000000E+00  0.00000000E+00  0.00000000E+00
  0.00000000E+00  0.00000000E+00  0.00000000E+00
  0.00000000E+00  0.00000000E+00  0.00000000E+00
  0.00000000E+00  0.00000000E+00  0.00000000E+00
  0.00000000E+00  0.00000000E+00  0.00000000E+00
  0.00000000E+00  0.00000000E+00  0.00000000E+00
  0.00000000E+00  0.00000000E+00  0.00000000E+00
  0.00000000E+00  0.00000000E+00  0.00000000E+00
  0.00000000E+00  0.00000000E+00  0.00000000E+00
  0.00000000E+00  0.00000000E+00  0.00000000E+00
  0.00000000E+00  0.00000000E+00  0.00000000E+00
  0.00000000E+00  0.00000000E+00  0.00000000E+00
  0.00000000E+00  0.00000000E+00  0.00000000E+00
  0.00000000E+00  0.00000000E+00  0.00000000E+00
  0.00000000E+00  0.00000000E+00  0.00000000E+00
  0.00000000E+00  0.00000000E+00  0.00000000E+00
  0.00000000E+00  0.00000000E+00  0.00000000E+00
  0.00000000E+00  0.00000000E+00  0.00000000E+00
  0.00000000E+00  0.00000000E+00  0.00000000E+00
  0.00000000E+00  0.00000000E+00  0.00000000E+00
  0.00000000E+00  0.00000000E+00  0.00000000E+00
  0.00000000E+00  0.00000000E+00  0.00000000E+00
  0.00000000E+00  0.00000000E+00  0.00000000E+00
  0.00000000E+00  0.00000000E+00  0.00000000E+00
  0.00000000E+00  0.00000000E+00  0.00000000E+00
  0.00000000E+00  0.00000000E+00  0.00000000E+00
  0.00000000E+00  0.00000000E+00  0.00000000E+00
  0.00000000E+00  0.00000000E+00  0.00000000E+00
  0.00000000E+00  0.00000000E+00  0.00000000E+00
  0.00000000E+00  0.00000000E+00  0.00000000E+00
  0.00000000E+00  0.00000000E+00  0.00000000E+00
  0.00000000E+00  0.00000000E+00  0.00000000E+00
