Na3SbS4_9H2O
1.0
  12.0148810000  0.0000000000  0.0000000000
  0.0000000000  12.0148810000  0.0000000000
  0.0000000000  0.0000000000  12.0148810000
  Na  Sb  H  S  O
  12  4  72  16  36
Direct
  0.2919910000  0.2919910000  0.2919910000
  0.9503490000  0.0496510000  0.5496510000
  0.5496510000  0.9503490000  0.0496510000
  0.6051470000  0.6051470000  0.6051470000
  0.8948530000  0.3948530000  0.1051470000
  0.1051470000  0.8948530000  0.3948530000
  0.3948530000  0.1051470000  0.8948530000
  0.7080090000  0.7919910000  0.2080090000
  0.7919910000  0.2080090000  0.7080090000
  0.2080090000  0.7080090000  0.7919910000
  0.4503490000  0.4503490000  0.4503490000
  0.0496510000  0.5496510000  0.9503490000
  0.0376870000  0.0376870000  0.0376870000
  0.4623130000  0.9623130000  0.5376870000
  0.5376870000  0.4623130000  0.9623130000
  0.9623130000  0.5376870000  0.4623130000
  0.4422760000  0.6956000000  0.8736630000
  0.9422760000  0.8044000000  0.1263370000
  0.5577240000  0.1956000000  0.6263370000
  0.8044000000  0.1263370000  0.9422760000
  0.6263370000  0.5577240000  0.1956000000
  0.1263370000  0.9422760000  0.8044000000
  0.6956000000  0.8736630000  0.4422760000
  0.8736630000  0.4422760000  0.6956000000
  0.1956000000  0.6263370000  0.5577240000
  0.3044000000  0.3736630000  0.0577240000
  0.3736630000  0.0577240000  0.3044000000
  0.0577240000  0.3044000000  0.3736630000
  0.4533700000  0.7791360000  0.7739820000
  0.9533700000  0.7208640000  0.2260180000
  0.5466300000  0.2791360000  0.7260180000
  0.7208640000  0.2260180000  0.9533700000
  0.7260180000  0.5466300000  0.2791360000
  0.2260180000  0.9533700000  0.7208640000
  0.7791360000  0.7739820000  0.4533700000
  0.7739820000  0.4533700000  0.7791360000
  0.2791360000  0.7260180000  0.5466300000
  0.2208640000  0.2739820000  0.0466300000
  0.2739820000  0.0466300000  0.2208640000
  0.0466300000  0.2208640000  0.2739820000
  0.3270810000  0.2398040000  0.5417150000
  0.8270810000  0.2601960000  0.4582850000
  0.6729190000  0.7398040000  0.9582850000
  0.2601960000  0.4582850000  0.8270810000
  0.9582850000  0.6729190000  0.7398040000
  0.4582850000  0.8270810000  0.2601960000
  0.2398040000  0.5417150000  0.3270810000
  0.5417150000  0.3270810000  0.2398040000
  0.7398040000  0.9582850000  0.6729190000
  0.7601960000  0.0417150000  0.1729190000
  0.2001090000  0.0824640000  0.5208000000
  0.0417150000  0.1729190000  0.7601960000
  0.2446090000  0.3401140000  0.5221870000
  0.7446090000  0.1598860000  0.4778130000
  0.7553910000  0.8401140000  0.9778130000
  0.1598860000  0.4778130000  0.7446090000
  0.9778130000  0.7553910000  0.8401140000
  0.4778130000  0.7446090000  0.1598860000
  0.3401140000  0.5221870000  0.2446090000
  0.5221870000  0.2446090000  0.3401140000
  0.8401140000  0.9778130000  0.7553910000
  0.6598860000  0.0221870000  0.2553910000
  0.0221870000  0.2553910000  0.6598860000
  0.2553910000  0.6598860000  0.0221870000
  0.5770390000  0.6315560000  0.3597130000
  0.0770390000  0.8684440000  0.6402870000
  0.4229610000  0.1315560000  0.1402870000
  0.8684440000  0.6402870000  0.0770390000
  0.1402870000  0.4229610000  0.1315560000
  0.6402870000  0.0770390000  0.8684440000
  0.6315560000  0.3597130000  0.5770390000
  0.3597130000  0.5770390000  0.6315560000
  0.1315560000  0.1402870000  0.4229610000
  0.3684440000  0.8597130000  0.9229610000
  0.8597130000  0.9229610000  0.3684440000
  0.9229610000  0.3684440000  0.8597130000
  0.4792000000  0.7001090000  0.4175360000
  0.9792000000  0.7998910000  0.5824640000
  0.5208000000  0.2001090000  0.0824640000
  0.7998910000  0.5824640000  0.9792000000
  0.0824640000  0.5208000000  0.2001090000
  0.5824640000  0.9792000000  0.7998910000
  0.7001090000  0.4175360000  0.4792000000
  0.4175360000  0.4792000000  0.7001090000
  0.0208000000  0.2998910000  0.9175360000
  0.9175360000  0.0208000000  0.2998910000
  0.2998910000  0.9175360000  0.0208000000
  0.1729190000  0.7601960000  0.0417150000
  0.0761210000  0.4238790000  0.5761210000
  0.1461450000  0.1539040000  0.9212100000
  0.5761210000  0.0761210000  0.4238790000
  0.9238790000  0.9238790000  0.9238790000
  0.9212100000  0.1461450000  0.1539040000
  0.1539040000  0.9212100000  0.1461450000
  0.3460960000  0.0787900000  0.6461450000
  0.4212100000  0.3538550000  0.8460960000
  0.8460960000  0.4212100000  0.3538550000
  0.5787900000  0.8538550000  0.6539040000
  0.0787900000  0.6461450000  0.3460960000
  0.6539040000  0.5787900000  0.8538550000
  0.6461450000  0.3460960000  0.0787900000
  0.8538550000  0.6539040000  0.5787900000
  0.4238790000  0.5761210000  0.0761210000
  0.3538550000  0.8460960000  0.4212100000
  0.4000510000  0.7503600000  0.8303730000
  0.9000510000  0.7496400000  0.1696270000
  0.5999490000  0.2503600000  0.6696270000
  0.7496400000  0.1696270000  0.9000510000
  0.6696270000  0.5999490000  0.2503600000
  0.1696270000  0.9000510000  0.7496400000
  0.7503600000  0.8303730000  0.4000510000
  0.8303730000  0.4000510000  0.7503600000
  0.2503600000  0.6696270000  0.5999490000
  0.2496400000  0.3303730000  0.0999490000
  0.3303730000  0.0999490000  0.2496400000
  0.0999490000  0.2496400000  0.3303730000
  0.3134130000  0.3053570000  0.4937820000
  0.8134130000  0.1946430000  0.5062180000
  0.6865870000  0.8053570000  0.0062180000
  0.1946430000  0.5062180000  0.8134130000
  0.0062180000  0.6865870000  0.8053570000
  0.5062180000  0.8134130000  0.1946430000
  0.3053570000  0.4937820000  0.3134130000
  0.4937820000  0.3134130000  0.3053570000
  0.8053570000  0.0062180000  0.6865870000
  0.6946430000  0.9937820000  0.1865870000
  0.9937820000  0.1865870000  0.6946430000
  0.1865870000  0.6946430000  0.9937820000
  0.5277240000  0.6343870000  0.4259500000
  0.0277240000  0.8656130000  0.5740500000
  0.4722760000  0.1343870000  0.0740500000
  0.8656130000  0.5740500000  0.0277240000
  0.0740500000  0.4722760000  0.1343870000
  0.5740500000  0.0277240000  0.8656130000
  0.6343870000  0.4259500000  0.5277240000
  0.4259500000  0.5277240000  0.6343870000
  0.1343870000  0.0740500000  0.4722760000
  0.3656130000  0.9259500000  0.9722760000
  0.9259500000  0.9722760000  0.3656130000
  0.9722760000  0.3656130000  0.9259500000
