Li28 La12 Zr8 O48                       
   1.00000000000000     
    -6.5430222807781666    6.2921191444772786    6.5414929686981820
     6.5415064013326862   -6.2938664165088358    6.5416936108756643
     6.5417453063274351    6.2924429181517336   -6.5429119705079559
   Li   La   Zr   O 
    28    12     8    48
Direct
  0.3900473848244684  0.6578147538518652  0.3838234876416512
  0.3676633271693515  0.2414513947982257  0.6221266706971018
  0.8793902625878309  0.4894869327975244  0.7154847160928826
  0.6176991741667861  0.7414068787814108  0.3722334019959599
  0.7724516410042579  0.0020155325999350  0.1106437670178250
  0.2128540554035438  0.9935888801942365  0.8857092630413497
  0.8675603132627888  0.2413758577682675  0.1221786107411663
  0.2109661542415828  0.9894045301084836  0.3837959659110133
  0.4557395948369836  0.2446187424233137  0.0680041210220255
  0.0953558673131116  0.4805817202386602  0.2661420694291158
  0.7617935738523489  0.9807039460326091  0.5998766723284743
  0.5634502261753332  0.7445868797309875  0.9603381766221920
  0.1177760187633746  0.7414933007819471  0.8722241153533760
  0.1042596124192166  0.8229831842212926  0.1106046701311753
  0.2746989903331793  0.6598840768153156  0.7770283800191455
  0.3812752323484641  0.4934505333808707  0.7172851481794397
  0.6752160642753131  0.3838161626528054  0.4264972548206699
  0.0296766247144449  0.0990873392185948  0.7873878285363168
  0.7130426293893132  0.8251214442699912  0.2282811559046821
  0.8101574917547614  0.2381951495641916  0.7072381506267301
  0.8795003503558950  0.1580148086876927  0.8948435644396784
  0.7236267334831138  0.3251187770418783  0.2174834953125794
  0.6061597411981522  0.5021227770762133  0.2769479974755488
  0.2828138009443610  0.5991245328340532  0.5339952929367606
  0.9221499800072627  0.8837188803523418  0.1797661560004478
  0.2726525554784117  0.1599522316825643  0.7790306548181891
  0.2025570862054052  0.7381778737742788  0.3147016790921814
  0.6062537303108577  0.3230729948953970  0.6087611604520444
  0.2427927374249395  0.3612860107859365  0.1170269590002312
  0.7427778582886619  0.1216852954423845  0.3774633930107111
  0.1179558848363665  0.2414403974746197  0.3724076063441210
  0.3682313373325866  0.1169132730048602  0.2472204509304908
  0.3675747957829279  0.7414777062553964  0.1220137799956783
  0.1172676208802506  0.3659633461794239  0.7472085656025468
  0.7427599967290656  0.6169260224127200  0.8727043702027258
  0.2427568125902586  0.8659839276490386  0.6217368930668009
  0.8679907185048741  0.7414542861073778  0.6224345234227516
  0.6125781297745015  0.8612686571802106  0.7472404373988986
  0.6174768301801764  0.2414279937993057  0.8719941482760982
  0.8729459004532585  0.6216047349819405  0.2472086281937744
  0.9922876038499406  0.9905237636451488  0.9968488602938996
  0.4922237435029828  0.9913664717235872  0.4976140400685998
  0.4932188745720320  0.4915199933441112  0.9967480644993035
  0.9933253697116046  0.4923892178008457  0.4976941938750116
  0.4923970817034811  0.4905265446262940  0.4967640277821614
  0.4922348877480658  0.9915230465926755  0.9976629664433653
  0.9932070243235186  0.9923852067209483  0.4977511803581036
  0.9931781920708356  0.4913963467730135  0.9967326002603720
  0.4715737352824773  0.3698313128004498  0.2949122936894510
  0.5734098949676527  0.1725534082507893  0.1995572246743449
  0.0140590405800268  0.3103973508390824  0.8969079086744161
  0.9120485329776485  0.1131055133787439  0.5975751587541096
  0.2848121698350687  0.4695547907575373  0.3761701956934315
  0.3788165792536788  0.2893695213413273  0.4754553241339954
  0.5918324930499587  0.9044919735120770  0.1182275706951278
  0.1731035264305145  0.1936238017218969  0.5853668061994715
  0.2007646787829082  0.5783684315937933  0.1833740057990175
  0.3123858439177827  0.8993191882859149  0.0189981506379037
  0.8935716085731747  0.0132561658387741  0.3110817932362839
  0.1067457509253526  0.5837281050041797  0.9092018311846386
  0.1078920314238677  0.0090890763939040  0.2052349569992190
  0.3024348302100729  0.8985542713358836  0.2892244048204952
  0.1831430067538557  0.4738301677708976  0.5946315914502377
  0.3776925741422419  0.5843284171436413  0.8997435245301580
  0.0112451140440166  0.1919329719544638  0.1085134668649216
  0.1971701616502628  0.1143738417013342  0.0282334616445221
  0.5819361692804507  0.8986936805626252  0.3859756428879422
  0.2883577949667634  0.3179942798059046  0.9156685542035834
  0.9035265981273413  0.2909335121220954  0.3153049169225733
  0.5847481941208641  0.1648875336035877  0.4663663518400514
  0.4742055615683451  0.5842217908710491  0.1791335529516578
  0.9009698832637454  0.3686648196450626  0.5788221888816438
  0.5238246687308925  0.6143001965323837  0.7016613547544577
  0.4111795799946900  0.8180225160039265  0.7927439920698702
  0.9618410806064572  0.6648952681218011  0.0891635150124474
  0.0742730676256096  0.8685613939089623  0.4053339546841045
  0.7007873345622510  0.5090751185999179  0.6123089786081566
  0.6040813288837953  0.6919632425303721  0.5158277311314104
  0.3953025030528398  0.0843879079652950  0.8821393641352673
  0.8108118733929279  0.7910597861698822  0.4081098677556723
  0.7847720979190045  0.3985105596360228  0.8068888286299005
  0.6745958662509214  0.0841954552682191  0.9786921510886929
  0.0902033598306885  0.9738589890371144  0.6875664108387287
  0.8814234327797826  0.3987118209791891  0.0864027691794370
  0.8717608555661438  0.9696560508218324  0.7893148422601703
  0.6788248285152304  0.0783651791215231  0.7052868219665890
  0.8067034482629672  0.5133900495149825  0.3980957052965423
  0.6137477750982759  0.4045099204626793  0.0964038580848063
  0.9710349468802533  0.7893737050987852  0.8832875221698443
  0.7904570600071189  0.8698080693465786  0.9759916101867817
  0.4046015014524530  0.0836772033109347  0.6111628499710472
  0.6951194932389695  0.6725629802464531  0.0779814587734992
  0.0809480700666950  0.6936080066437712  0.6775703064275271
  0.3923151326184428  0.8103415407240808  0.5184224564879163
  0.5144865748565550  0.3992625575439435  0.8168654047410481
  0.0931457285986967  0.6130161971015351  0.4164820527115164
 
  0.00000000E+00  0.00000000E+00  0.00000000E+00
  0.00000000E+00  0.00000000E+00  0.00000000E+00
  0.00000000E+00  0.00000000E+00  0.00000000E+00
  0.00000000E+00  0.00000000E+00  0.00000000E+00
  0.00000000E+00  0.00000000E+00  0.00000000E+00
  0.00000000E+00  0.00000000E+00  0.00000000E+00
  0.00000000E+00  0.00000000E+00  0.00000000E+00
  0.00000000E+00  0.00000000E+00  0.00000000E+00
  0.00000000E+00  0.00000000E+00  0.00000000E+00
  0.00000000E+00  0.00000000E+00  0.00000000E+00
  0.00000000E+00  0.00000000E+00  0.00000000E+00
  0.00000000E+00  0.00000000E+00  0.00000000E+00
  0.00000000E+00  0.00000000E+00  0.00000000E+00
  0.00000000E+00  0.00000000E+00  0.00000000E+00
  0.00000000E+00  0.00000000E+00  0.00000000E+00
  0.00000000E+00  0.00000000E+00  0.00000000E+00
  0.00000000E+00  0.00000000E+00  0.00000000E+00
  0.00000000E+00  0.00000000E+00  0.00000000E+00
  0.00000000E+00  0.00000000E+00  0.00000000E+00
  0.00000000E+00  0.00000000E+00  0.00000000E+00
  0.00000000E+00  0.00000000E+00  0.00000000E+00
  0.00000000E+00  0.00000000E+00  0.00000000E+00
  0.00000000E+00  0.00000000E+00  0.00000000E+00
  0.00000000E+00  0.00000000E+00  0.00000000E+00
  0.00000000E+00  0.00000000E+00  0.00000000E+00
  0.00000000E+00  0.00000000E+00  0.00000000E+00
  0.00000000E+00  0.00000000E+00  0.00000000E+00
  0.00000000E+00  0.00000000E+00  0.00000000E+00
  0.00000000E+00  0.00000000E+00  0.00000000E+00
  0.00000000E+00  0.00000000E+00  0.00000000E+00
  0.00000000E+00  0.00000000E+00  0.00000000E+00
  0.00000000E+00  0.00000000E+00  0.00000000E+00
  0.00000000E+00  0.00000000E+00  0.00000000E+00
  0.00000000E+00  0.00000000E+00  0.00000000E+00
  0.00000000E+00  0.00000000E+00  0.00000000E+00
  0.00000000E+00  0.00000000E+00  0.00000000E+00
  0.00000000E+00  0.00000000E+00  0.00000000E+00
  0.00000000E+00  0.00000000E+00  0.00000000E+00
  0.00000000E+00  0.00000000E+00  0.00000000E+00
  0.00000000E+00  0.00000000E+00  0.00000000E+00
  0.00000000E+00  0.00000000E+00  0.00000000E+00
  0.00000000E+00  0.00000000E+00  0.00000000E+00
  0.00000000E+00  0.00000000E+00  0.00000000E+00
  0.00000000E+00  0.00000000E+00  0.00000000E+00
  0.00000000E+00  0.00000000E+00  0.00000000E+00
  0.00000000E+00  0.00000000E+00  0.00000000E+00
  0.00000000E+00  0.00000000E+00  0.00000000E+00
  0.00000000E+00  0.00000000E+00  0.00000000E+00
  0.00000000E+00  0.00000000E+00  0.00000000E+00
  0.00000000E+00  0.00000000E+00  0.00000000E+00
  0.00000000E+00  0.00000000E+00  0.00000000E+00
  0.00000000E+00  0.00000000E+00  0.00000000E+00
  0.00000000E+00  0.00000000E+00  0.00000000E+00
  0.00000000E+00  0.00000000E+00  0.00000000E+00
  0.00000000E+00  0.00000000E+00  0.00000000E+00
  0.00000000E+00  0.00000000E+00  0.00000000E+00
  0.00000000E+00  0.00000000E+00  0.00000000E+00
  0.00000000E+00  0.00000000E+00  0.00000000E+00
  0.00000000E+00  0.00000000E+00  0.00000000E+00
  0.00000000E+00  0.00000000E+00  0.00000000E+00
  0.00000000E+00  0.00000000E+00  0.00000000E+00
  0.00000000E+00  0.00000000E+00  0.00000000E+00
  0.00000000E+00  0.00000000E+00  0.00000000E+00
  0.00000000E+00  0.00000000E+00  0.00000000E+00
  0.00000000E+00  0.00000000E+00  0.00000000E+00
  0.00000000E+00  0.00000000E+00  0.00000000E+00
  0.00000000E+00  0.00000000E+00  0.00000000E+00
  0.00000000E+00  0.00000000E+00  0.00000000E+00
  0.00000000E+00  0.00000000E+00  0.00000000E+00
  0.00000000E+00  0.00000000E+00  0.00000000E+00
  0.00000000E+00  0.00000000E+00  0.00000000E+00
  0.00000000E+00  0.00000000E+00  0.00000000E+00
  0.00000000E+00  0.00000000E+00  0.00000000E+00
  0.00000000E+00  0.00000000E+00  0.00000000E+00
  0.00000000E+00  0.00000000E+00  0.00000000E+00
  0.00000000E+00  0.00000000E+00  0.00000000E+00
  0.00000000E+00  0.00000000E+00  0.00000000E+00
  0.00000000E+00  0.00000000E+00  0.00000000E+00
  0.00000000E+00  0.00000000E+00  0.00000000E+00
  0.00000000E+00  0.00000000E+00  0.00000000E+00
  0.00000000E+00  0.00000000E+00  0.00000000E+00
  0.00000000E+00  0.00000000E+00  0.00000000E+00
  0.00000000E+00  0.00000000E+00  0.00000000E+00
  0.00000000E+00  0.00000000E+00  0.00000000E+00
  0.00000000E+00  0.00000000E+00  0.00000000E+00
  0.00000000E+00  0.00000000E+00  0.00000000E+00
  0.00000000E+00  0.00000000E+00  0.00000000E+00
  0.00000000E+00  0.00000000E+00  0.00000000E+00
  0.00000000E+00  0.00000000E+00  0.00000000E+00
  0.00000000E+00  0.00000000E+00  0.00000000E+00
  0.00000000E+00  0.00000000E+00  0.00000000E+00
  0.00000000E+00  0.00000000E+00  0.00000000E+00
  0.00000000E+00  0.00000000E+00  0.00000000E+00
  0.00000000E+00  0.00000000E+00  0.00000000E+00
  0.00000000E+00  0.00000000E+00  0.00000000E+00
  0.00000000E+00  0.00000000E+00  0.00000000E+00
