Na8 S20                                 
   1.0000000000000000     
     5.8866346391848694    0.0000000000000000    0.0000000000000004
     0.0000000000000012    7.8394537081891835    0.0000000000000005
     0.0000000000000000    0.0000000000000000   14.7846831983396569
   Na   S 
     8    20
Direct
  0.1999131688827200  0.9498821531120319  0.7500000000000000
  0.6999131688827211  0.5501178468879681  0.2500000000000000
  0.3000868311172802  0.4498821531120316  0.7500000000000000
  0.8000868311172789  0.0501178468879684  0.2500000000000000
  0.0000000000000000 -0.0000000000000000  0.5000000000000000
  0.5000000000000000  0.5000000000000000  0.5000000000000000
  0.5000000000000000  0.5000000000000000  0.0000000000000000
  0.0000000000000000 -0.0000000000000000  0.0000000000000000
  0.1060095083117220  0.4496866352031506  0.1354550983446246
  0.6060095083117217  0.0503133647968495  0.8645449016553759
  0.3939904916882781  0.9496866352031501  0.3645449016553757
  0.8939904916882783  0.5503133647968499  0.6354550983446241
  0.8939904916882783  0.5503133647968499  0.8645449016553759
  0.3939904916882781  0.9496866352031501  0.1354550983446246
  0.6060095083117217  0.0503133647968495  0.6354550983446241
  0.1060095083117220  0.4496866352031506  0.3645449016553757
  0.2664789281104371  0.3524994514386270  0.2500000000000000
  0.7664789281104366  0.1475005485613728  0.7500000000000000
  0.2335210718895631  0.8524994514386270  0.2500000000000000
  0.7335210718895634  0.6475005485613730  0.7500000000000000
  0.8345962396782419  0.2926301336903783  0.3965416463855975
  0.3345962396782410  0.2073698663096218  0.6034583536144030
  0.6654037603217581  0.7926301336903779  0.1034583536144026
  0.1654037603217585  0.7073698663096221  0.8965416463855970
  0.1654037603217585  0.7073698663096221  0.6034583536144030
  0.6654037603217581  0.7926301336903779  0.3965416463855975
  0.3345962396782410  0.2073698663096218  0.8965416463855970
  0.8345962396782419  0.2926301336903783  0.1034583536144026

  0.00000000E+00  0.00000000E+00  0.00000000E+00
  0.00000000E+00  0.00000000E+00  0.00000000E+00
  0.00000000E+00  0.00000000E+00  0.00000000E+00
  0.00000000E+00  0.00000000E+00  0.00000000E+00
  0.00000000E+00  0.00000000E+00  0.00000000E+00
  0.00000000E+00  0.00000000E+00  0.00000000E+00
  0.00000000E+00  0.00000000E+00  0.00000000E+00
  0.00000000E+00  0.00000000E+00  0.00000000E+00
  0.00000000E+00  0.00000000E+00  0.00000000E+00
  0.00000000E+00  0.00000000E+00  0.00000000E+00
  0.00000000E+00  0.00000000E+00  0.00000000E+00
  0.00000000E+00  0.00000000E+00  0.00000000E+00
  0.00000000E+00  0.00000000E+00  0.00000000E+00
  0.00000000E+00  0.00000000E+00  0.00000000E+00
  0.00000000E+00  0.00000000E+00  0.00000000E+00
  0.00000000E+00  0.00000000E+00  0.00000000E+00
  0.00000000E+00  0.00000000E+00  0.00000000E+00
  0.00000000E+00  0.00000000E+00  0.00000000E+00
  0.00000000E+00  0.00000000E+00  0.00000000E+00
  0.00000000E+00  0.00000000E+00  0.00000000E+00
  0.00000000E+00  0.00000000E+00  0.00000000E+00
  0.00000000E+00  0.00000000E+00  0.00000000E+00
  0.00000000E+00  0.00000000E+00  0.00000000E+00
  0.00000000E+00  0.00000000E+00  0.00000000E+00
  0.00000000E+00  0.00000000E+00  0.00000000E+00
  0.00000000E+00  0.00000000E+00  0.00000000E+00
  0.00000000E+00  0.00000000E+00  0.00000000E+00
  0.00000000E+00  0.00000000E+00  0.00000000E+00
