Na16 Zn12 S20                           
   1.0000000000000000     
     3.9242505896860691    0.0000000000000000    0.0000000000000002
    -0.0000000000000008   13.1569337392195393    0.0000000000000008
    -0.0000000000000000   -0.0000000000000000   18.7700698510179897
   Na   Zn   S 
    16    12    20
Direct
  0.2500000000000000  0.9963572241936288  0.7644684276946579
  0.2500000000000000  0.4963572241936289  0.7355315723053421
  0.7500000000000000  0.0036427758063711  0.2355315723053421
  0.7500000000000000  0.5036427758063712  0.2644684276946579
  0.2500000000000000  0.0078544365055778  0.4177218699135060
  0.2500000000000000  0.5078544365055779  0.0822781300864940
  0.7500000000000000  0.9921455634944221  0.5822781300864940
  0.7500000000000000  0.4921455634944222  0.9177218699135060
  0.2500000000000000  0.1089959631062264  0.9509609054406991
  0.2500000000000000  0.6089959631062265  0.5490390945593009
  0.7500000000000000  0.8910040368937735  0.0490390945593009
  0.7500000000000000  0.3910040368937736  0.4509609054406992
  0.2500000000000000  0.2719435510785422  0.8342755654497682
  0.2500000000000000  0.7719435510785423  0.6657244345502318
  0.7500000000000000  0.7280564489214577  0.1657244345502317
  0.7500000000000000  0.2280564489214577  0.3342755654497682
  0.2500000000000000  0.2096353030312372  0.5411071831196509
  0.2500000000000000  0.7096353030312372  0.9588928168803491
  0.7500000000000000  0.7903646969687628  0.4588928168803491
  0.7500000000000000  0.2903646969687628  0.0411071831196509
  0.2500000000000000  0.3203091840603547  0.2170196165793472
  0.2500000000000000  0.8203091840603547  0.2829803834206528
  0.7500000000000000  0.6796908159396453  0.7829803834206529
  0.7500000000000000  0.1796908159396453  0.7170196165793471
  0.2500000000000000  0.5760755258613349  0.3683409169817057
  0.2500000000000000  0.0760755258613350  0.1316590830182943
  0.7500000000000000  0.4239244741386650  0.6316590830182943
  0.7500000000000000  0.9239244741386651  0.8683409169817057
  0.2500000000000000  0.1242498537334332  0.6532670167050213
  0.2500000000000000  0.6242498537334332  0.8467329832949787
  0.7500000000000000  0.8757501462665668  0.3467329832949785
  0.7500000000000000  0.3757501462665668  0.1532670167050285
  0.2500000000000000  0.1491515190599912  0.2456953900063872
  0.2500000000000000  0.6491515190599911  0.2543046099936127
  0.7500000000000000  0.8508484809400089  0.7543046099936128
  0.7500000000000000  0.3508484809400088  0.7456953900063872
  0.2500000000000000  0.3423072408161106  0.9774576441766298
  0.2500000000000000  0.8423072408161106  0.5225423558233702
  0.7500000000000000  0.6576927591838894  0.0225423558233702
  0.7500000000000000  0.1576927591838895  0.4774576441766297
  0.2500000000000000  0.3934077139115283  0.3391149051097053
  0.2500000000000000  0.8934077139115282  0.1608850948902948
  0.7500000000000000  0.6065922860884718  0.6608850948902948
  0.7500000000000000  0.1065922860884718  0.8391149051097052
  0.2500000000000000  0.3884340175966489  0.5636287894592621
  0.2500000000000000  0.8884340175966490  0.9363712105407379
  0.7500000000000000  0.6115659824033510  0.4363712105407379
  0.7500000000000000  0.1115659824033511  0.0636287894592621

  0.00000000E+00  0.00000000E+00  0.00000000E+00
  0.00000000E+00  0.00000000E+00  0.00000000E+00
  0.00000000E+00  0.00000000E+00  0.00000000E+00
  0.00000000E+00  0.00000000E+00  0.00000000E+00
  0.00000000E+00  0.00000000E+00  0.00000000E+00
  0.00000000E+00  0.00000000E+00  0.00000000E+00
  0.00000000E+00  0.00000000E+00  0.00000000E+00
  0.00000000E+00  0.00000000E+00  0.00000000E+00
  0.00000000E+00  0.00000000E+00  0.00000000E+00
  0.00000000E+00  0.00000000E+00  0.00000000E+00
  0.00000000E+00  0.00000000E+00  0.00000000E+00
  0.00000000E+00  0.00000000E+00  0.00000000E+00
  0.00000000E+00  0.00000000E+00  0.00000000E+00
  0.00000000E+00  0.00000000E+00  0.00000000E+00
  0.00000000E+00  0.00000000E+00  0.00000000E+00
  0.00000000E+00  0.00000000E+00  0.00000000E+00
  0.00000000E+00  0.00000000E+00  0.00000000E+00
  0.00000000E+00  0.00000000E+00  0.00000000E+00
  0.00000000E+00  0.00000000E+00  0.00000000E+00
  0.00000000E+00  0.00000000E+00  0.00000000E+00
  0.00000000E+00  0.00000000E+00  0.00000000E+00
  0.00000000E+00  0.00000000E+00  0.00000000E+00
  0.00000000E+00  0.00000000E+00  0.00000000E+00
  0.00000000E+00  0.00000000E+00  0.00000000E+00
  0.00000000E+00  0.00000000E+00  0.00000000E+00
  0.00000000E+00  0.00000000E+00  0.00000000E+00
  0.00000000E+00  0.00000000E+00  0.00000000E+00
  0.00000000E+00  0.00000000E+00  0.00000000E+00
  0.00000000E+00  0.00000000E+00  0.00000000E+00
  0.00000000E+00  0.00000000E+00  0.00000000E+00
  0.00000000E+00  0.00000000E+00  0.00000000E+00
  0.00000000E+00  0.00000000E+00  0.00000000E+00
  0.00000000E+00  0.00000000E+00  0.00000000E+00
  0.00000000E+00  0.00000000E+00  0.00000000E+00
  0.00000000E+00  0.00000000E+00  0.00000000E+00
  0.00000000E+00  0.00000000E+00  0.00000000E+00
  0.00000000E+00  0.00000000E+00  0.00000000E+00
  0.00000000E+00  0.00000000E+00  0.00000000E+00
  0.00000000E+00  0.00000000E+00  0.00000000E+00
  0.00000000E+00  0.00000000E+00  0.00000000E+00
  0.00000000E+00  0.00000000E+00  0.00000000E+00
  0.00000000E+00  0.00000000E+00  0.00000000E+00
  0.00000000E+00  0.00000000E+00  0.00000000E+00
  0.00000000E+00  0.00000000E+00  0.00000000E+00
  0.00000000E+00  0.00000000E+00  0.00000000E+00
  0.00000000E+00  0.00000000E+00  0.00000000E+00
  0.00000000E+00  0.00000000E+00  0.00000000E+00
  0.00000000E+00  0.00000000E+00  0.00000000E+00
