Na16 Zn12 S20
1.0
   3.9313709999999999    0.0000000000000000    0.0000000000000002
  -0.0000000000000008   13.1887840000000001    0.0000000000000008
   0.0000000000000000    0.0000000000000000   18.8749520000000004
Na Zn S
16 12 20
direct
   0.2500000000000000    0.9976780000000000    0.7648050000000000 Na
   0.2500000000000000    0.4976780000000000    0.7351950000000000 Na
   0.7500000000000000    0.0023220000000000    0.2351950000000000 Na
   0.7500000000000000    0.5023220000000000    0.2648050000000000 Na
   0.2500000000000000    0.0074620000000000    0.4171920000000000 Na
   0.2500000000000000    0.5074620000000000    0.0828080000000000 Na
   0.7500000000000000    0.9925380000000000    0.5828080000000000 Na
   0.7500000000000000    0.4925380000000000    0.9171920000000000 Na
   0.2500000000000000    0.1094240000000000    0.9505850000000000 Na
   0.2500000000000000    0.6094240000000000    0.5494150000000000 Na
   0.7500000000000000    0.8905760000000000    0.0494150000000000 Na
   0.7500000000000000    0.3905760000000000    0.4505850000000000 Na
   0.2500000000000000    0.2732240000000000    0.8337520000000000 Na
   0.2500000000000000    0.7732240000000000    0.6662480000000000 Na
   0.7500000000000000    0.7267760000000000    0.1662480000000000 Na
   0.7500000000000000    0.2267760000000000    0.3337520000000000 Na
   0.2500000000000000    0.2093240000000000    0.5410080000000000 Zn
   0.2500000000000000    0.7093240000000000    0.9589920000000000 Zn
   0.7500000000000000    0.7906760000000000    0.4589920000000000 Zn
   0.7500000000000000    0.2906760000000000    0.0410080000000000 Zn
   0.2500000000000000    0.3192760000000000    0.2169810000000000 Zn
   0.2500000000000000    0.8192760000000000    0.2830190000000000 Zn
   0.7500000000000000    0.6807240000000000    0.7830190000000000 Zn
   0.7500000000000000    0.1807240000000000    0.7169810000000000 Zn
   0.2500000000000000    0.5758960000000000    0.3687960000000000 Zn
   0.2500000000000000    0.0758960000000000    0.1312040000000000 Zn
   0.7500000000000000    0.4241040000000000    0.6312040000000000 Zn
   0.7500000000000000    0.9241040000000000    0.8687960000000000 Zn
   0.2500000000000000    0.1250690000000000    0.6532570000000000 S
   0.2500000000000000    0.6250690000000000    0.8467430000000000 S
   0.7500000000000000    0.8749310000000000    0.3467430000000000 S
   0.7500000000000000    0.3749310000000000    0.1532570000000000 S
   0.2500000000000000    0.1482650000000000    0.2452210000000000 S
   0.2500000000000000    0.6482650000000000    0.2547790000000000 S
   0.7500000000000000    0.8517350000000000    0.7547790000000000 S
   0.7500000000000000    0.3517350000000000    0.7452210000000000 S
   0.2500000000000000    0.3426580000000000    0.9774100000000000 S
   0.2500000000000000    0.8426580000000000    0.5225900000000000 S
   0.7500000000000000    0.6573420000000000    0.0225900000000000 S
   0.7500000000000000    0.1573420000000000    0.4774100000000000 S
   0.2500000000000000    0.3930770000000000    0.3384810000000000 S
   0.2500000000000000    0.8930770000000000    0.1615190000000000 S
   0.7500000000000000    0.6069230000000000    0.6615190000000000 S
   0.7500000000000000    0.1069230000000000    0.8384810000000000 S
   0.2500000000000000    0.3883100000000000    0.5633250000000000 S
   0.2500000000000000    0.8883100000000000    0.9366750000000000 S
   0.7500000000000000    0.6116900000000000    0.4366750000000000 S
   0.7500000000000000    0.1116900000000000    0.0633250000000000 S
