JVASP-12818_Na5InS4 NEB image 00        
   1.0000000000000000     
     6.8330688911791304    0.0000000000000000   -0.1272470229470229
    -0.0000000000000010   17.6718505513838551    0.0000000000000010
    -0.0048172062806638    0.0000000000000000    7.8804846921668430
   Na   In   S 
    19     4    16
Direct
  0.6306744111439165  0.2678202886217404  0.6895220331076584
  0.3434801368180349  0.0127290817307589  0.3299157496016320
  0.3463178385440554  0.2373616618598022  0.3384593357662760
  0.6300877757085495  0.4821011139550798  0.6898021783708214
  0.9564941980985315  0.1279635705924553  0.5276060995640649
  0.0411176887611310  0.3750703321752151  0.4998605293627515
  0.6831959569353107  0.1325144710870869  0.1496204783863426
 -0.0076201667214358 -0.0003360669424885 -0.0017588043148630
  0.0703552519923587  0.2684579941340687 -0.0131578233317934
  0.6505110167648689  0.7624843097736954  0.6594489258827216
  0.3455803529994302  0.5128026299295818  0.3385253727331586
  0.3434292843813984  0.7370976820320898  0.3303492151516695
  0.6510691784524446  0.9875221910832259  0.6594966438344256
  0.9561512215613887  0.6222916261323896  0.5274470808686792
  0.0298453689390160  0.8748776553701552  0.4688141350926787
  0.6832055735923571  0.6174310001535763  0.1495966674026885
  0.3304075590761937  0.8750415806798644  0.8428859858001465
  0.0704301140486439  0.4815460864561095 -0.0136116954983803
 -0.0071015735741759  0.7503222724247106 -0.0020422738692721
  0.6536253524430736  0.3751245030437979  0.1814943780935155
  0.3426767349449045  0.1207791476066002  0.8136658643301281
  0.6428303291511593  0.8748699333614800  0.1784326288292500
  0.3433023424822521  0.6289698585753423  0.8139019517876372
  0.7901212779720164  0.3749349839425803  0.8939683703201564
  0.2339791246229503  0.1255043522918130  0.1142350566206410
  0.2231303855342670  0.0033338760919798  0.6642331966763200
  0.7610421498409001  0.2591018111690747  0.3494222547773171
  0.7599031799929939  0.4910488042136901  0.3500737416405981
  0.2250486360537615  0.2377929904931992  0.6633259006021469
  0.7115820938577454  0.1233782564758104  0.8114986188469739
  0.2846344576304468  0.3750415827059277  0.1933244468932340
  0.7564030852720968  0.8750055797078081  0.8790134271095288
  0.2336223296509836  0.6245816914641650  0.1140969460603728
  0.2246623245974774  0.5123979223256301  0.6632055467563437
  0.7634655294242885  0.7559380139226034  0.3249134509427458
  0.7633046058542330  0.9939050393418575  0.3248725751178053
  0.2235104355535399  0.7467240992886944  0.6644743809833198
  0.7117457295376791  0.6266757309978092  0.8111830413026156
  0.2729214774780278  0.8747923417310198  0.1806813842242545

  0.00000000E+00  0.00000000E+00  0.00000000E+00
  0.00000000E+00  0.00000000E+00  0.00000000E+00
  0.00000000E+00  0.00000000E+00  0.00000000E+00
  0.00000000E+00  0.00000000E+00  0.00000000E+00
  0.00000000E+00  0.00000000E+00  0.00000000E+00
  0.00000000E+00  0.00000000E+00  0.00000000E+00
  0.00000000E+00  0.00000000E+00  0.00000000E+00
  0.00000000E+00  0.00000000E+00  0.00000000E+00
  0.00000000E+00  0.00000000E+00  0.00000000E+00
  0.00000000E+00  0.00000000E+00  0.00000000E+00
  0.00000000E+00  0.00000000E+00  0.00000000E+00
  0.00000000E+00  0.00000000E+00  0.00000000E+00
  0.00000000E+00  0.00000000E+00  0.00000000E+00
  0.00000000E+00  0.00000000E+00  0.00000000E+00
  0.00000000E+00  0.00000000E+00  0.00000000E+00
  0.00000000E+00  0.00000000E+00  0.00000000E+00
  0.00000000E+00  0.00000000E+00  0.00000000E+00
  0.00000000E+00  0.00000000E+00  0.00000000E+00
  0.00000000E+00  0.00000000E+00  0.00000000E+00
  0.00000000E+00  0.00000000E+00  0.00000000E+00
  0.00000000E+00  0.00000000E+00  0.00000000E+00
  0.00000000E+00  0.00000000E+00  0.00000000E+00
  0.00000000E+00  0.00000000E+00  0.00000000E+00
  0.00000000E+00  0.00000000E+00  0.00000000E+00
  0.00000000E+00  0.00000000E+00  0.00000000E+00
  0.00000000E+00  0.00000000E+00  0.00000000E+00
  0.00000000E+00  0.00000000E+00  0.00000000E+00
  0.00000000E+00  0.00000000E+00  0.00000000E+00
  0.00000000E+00  0.00000000E+00  0.00000000E+00
  0.00000000E+00  0.00000000E+00  0.00000000E+00
  0.00000000E+00  0.00000000E+00  0.00000000E+00
  0.00000000E+00  0.00000000E+00  0.00000000E+00
  0.00000000E+00  0.00000000E+00  0.00000000E+00
  0.00000000E+00  0.00000000E+00  0.00000000E+00
  0.00000000E+00  0.00000000E+00  0.00000000E+00
  0.00000000E+00  0.00000000E+00  0.00000000E+00
  0.00000000E+00  0.00000000E+00  0.00000000E+00
  0.00000000E+00  0.00000000E+00  0.00000000E+00
  0.00000000E+00  0.00000000E+00  0.00000000E+00
