mp-560538_Na3AlS3 NEB image 06          
   1.0000000000000000     
    12.1828203277415312    0.0000000000000000    0.0000000000000007
    -0.0000000000000005    7.5674693205415418    1.1970639402156102
     0.0000000000000000    0.0113082934473333   13.7304524371335805
   Na   Al   S 
    23     8    24
Direct
  0.0060351421015250  0.9561442133931807  0.7254746311597823
  0.7672903235737532 -0.0103371542689709  0.0009999856075821
  0.8251821129723096  0.4849406723402869  0.7508155524267820
  0.7501208286940838  0.9822328809884419  0.5127375686624360
  0.9506637161336177  0.1044737855236347  0.3379653053557040
  0.2412560857060541  0.5513546775703434  0.4785113859825922
  0.8237688359821458  0.5097331124666648  0.2491836842275668
  0.2460130930981006  0.0292197415538129  0.4934679660687632
  0.7506636993393152  0.4835550447663231  0.0069404519425942
  0.3892572376428362  0.3642793023246535  0.6555674696434672
  0.2575789372379814  0.5031384885308591  0.9909901234144811
  0.2465258033515250  0.0104596525163451  0.9892731398034807
  0.7482583511082131  0.4815684998051458  0.5109469158303659
  0.1822891113047809  0.4879940244393650  0.2448132483502761
  0.0288074669950986  0.9104399717739519  0.1777004744156089
  0.5455534682288243  0.5973991932818734  0.3297964009808590
  0.3164997126438714  0.9709348927890751  0.7562061718293128
  0.3192927482056696  0.9884878306864958  0.2478586571480730
  0.1678960548535920  0.5054285605977934  0.7532940991406559
  0.4728231414356270  0.4026683803055327  0.1772192526253167
  0.6896055360331371  0.0067961784202106  0.7508149990428105
  0.5245801072672246  0.5760073320316650  0.8047531675894033
  0.6790192467364489  0.0038980992360461  0.2460361700061576
  0.0064483707426879  0.3241186940426205  0.0739872881437990
  0.0111721292699128  0.3427790108449858  0.5741389603023206
  0.5096080523857865  0.1759037501427800  0.4273222200371742
  0.4986042476964043  0.8273174003045778  0.5720314416320480
  0.5073241110035734  0.1622711838103365  0.9236900104901942
  0.4965942518352733  0.8214158234668044  0.0712269757447272
  0.9935221307696727  0.6867216180697969  0.4301581753610589
  0.9978261170723981  0.6614072557108643  0.9290982414589281
  0.3567782557099011  0.3000595744926723  0.8585128366225077
  0.1669740817482135  0.2098173877330642  0.1279769510751458
  0.3631986922509472  0.3300573025193368  0.3655985413378293
  0.1526220978810266  0.7874557821785738  0.8681089795965442
 -0.0040997858570404  0.6130192706549153  0.0992839441504518
  0.6449366763925114  0.6826310968866779  0.1393637462084281
  0.8319324235878928  0.7865076057096548  0.3714113978221519
  0.1356141814262905  0.8447534417527398  0.3608631802992580
  0.3395550113816267  0.7137893997728474  0.6298313349668041
  0.5004474966005878  0.8712590605891621  0.9019450088224834
  0.6657963204222370  0.2827520607977727  0.8713103631842130
  0.8599090415722072  0.1821019506166500  0.1445085895462428
  0.1695310993363089  0.2246563302876864  0.6342338699189621
  0.0163216595023896  0.4009364603079424  0.4037017817577228
  0.6496575518873595  0.6935118799406482  0.6363188117657075
  0.5024978046345254  0.1107502646793521  0.0939513766414311
  0.6682169665881259  0.2862273697787787  0.3659602028971988
  0.8580169145357296  0.2022481631151375  0.6293972764493277
  0.0013388901743987  0.6325891314381438  0.5988537809400254
 -0.0000842073351236  0.3714321587771025  0.9063178169320212
  0.8425699382026096  0.7785355412660728  0.8648847660002167
  0.5144375646916844  0.1159270083251948  0.5963231197520532
  0.3385334319098171  0.7047704100184952  0.1304461252702605
  0.4925494526965394  0.8894426497524671  0.4018002448815935

  0.00000000E+00  0.00000000E+00  0.00000000E+00
  0.00000000E+00  0.00000000E+00  0.00000000E+00
  0.00000000E+00  0.00000000E+00  0.00000000E+00
  0.00000000E+00  0.00000000E+00  0.00000000E+00
  0.00000000E+00  0.00000000E+00  0.00000000E+00
  0.00000000E+00  0.00000000E+00  0.00000000E+00
  0.00000000E+00  0.00000000E+00  0.00000000E+00
  0.00000000E+00  0.00000000E+00  0.00000000E+00
  0.00000000E+00  0.00000000E+00  0.00000000E+00
  0.00000000E+00  0.00000000E+00  0.00000000E+00
  0.00000000E+00  0.00000000E+00  0.00000000E+00
  0.00000000E+00  0.00000000E+00  0.00000000E+00
  0.00000000E+00  0.00000000E+00  0.00000000E+00
  0.00000000E+00  0.00000000E+00  0.00000000E+00
  0.00000000E+00  0.00000000E+00  0.00000000E+00
  0.00000000E+00  0.00000000E+00  0.00000000E+00
  0.00000000E+00  0.00000000E+00  0.00000000E+00
  0.00000000E+00  0.00000000E+00  0.00000000E+00
  0.00000000E+00  0.00000000E+00  0.00000000E+00
  0.00000000E+00  0.00000000E+00  0.00000000E+00
  0.00000000E+00  0.00000000E+00  0.00000000E+00
  0.00000000E+00  0.00000000E+00  0.00000000E+00
  0.00000000E+00  0.00000000E+00  0.00000000E+00
  0.00000000E+00  0.00000000E+00  0.00000000E+00
  0.00000000E+00  0.00000000E+00  0.00000000E+00
  0.00000000E+00  0.00000000E+00  0.00000000E+00
  0.00000000E+00  0.00000000E+00  0.00000000E+00
  0.00000000E+00  0.00000000E+00  0.00000000E+00
  0.00000000E+00  0.00000000E+00  0.00000000E+00
  0.00000000E+00  0.00000000E+00  0.00000000E+00
  0.00000000E+00  0.00000000E+00  0.00000000E+00
  0.00000000E+00  0.00000000E+00  0.00000000E+00
  0.00000000E+00  0.00000000E+00  0.00000000E+00
  0.00000000E+00  0.00000000E+00  0.00000000E+00
  0.00000000E+00  0.00000000E+00  0.00000000E+00
  0.00000000E+00  0.00000000E+00  0.00000000E+00
  0.00000000E+00  0.00000000E+00  0.00000000E+00
  0.00000000E+00  0.00000000E+00  0.00000000E+00
  0.00000000E+00  0.00000000E+00  0.00000000E+00
  0.00000000E+00  0.00000000E+00  0.00000000E+00
  0.00000000E+00  0.00000000E+00  0.00000000E+00
  0.00000000E+00  0.00000000E+00  0.00000000E+00
  0.00000000E+00  0.00000000E+00  0.00000000E+00
  0.00000000E+00  0.00000000E+00  0.00000000E+00
  0.00000000E+00  0.00000000E+00  0.00000000E+00
  0.00000000E+00  0.00000000E+00  0.00000000E+00
  0.00000000E+00  0.00000000E+00  0.00000000E+00
  0.00000000E+00  0.00000000E+00  0.00000000E+00
  0.00000000E+00  0.00000000E+00  0.00000000E+00
  0.00000000E+00  0.00000000E+00  0.00000000E+00
  0.00000000E+00  0.00000000E+00  0.00000000E+00
  0.00000000E+00  0.00000000E+00  0.00000000E+00
  0.00000000E+00  0.00000000E+00  0.00000000E+00
  0.00000000E+00  0.00000000E+00  0.00000000E+00
  0.00000000E+00  0.00000000E+00  0.00000000E+00
