Na4 Zn2 S4                              
   1.0000000000000000     
     5.3783104922249683    0.0000000039474413   -2.4498165246194024
    -1.3262784680888138    5.5859197793878286   -2.9117047648714967
    -0.0094057500229076   -0.0064102664777183    7.1080144614897955
   Na   Zn   S 
     4     2     4
Direct
  0.1418664935682895  0.4895620061091442  0.2837319771365885
  0.8581335064317105  0.5104379938908559  0.7162680228634116
  0.3581335064317152  0.2058300189725481  0.7162680228634114
  0.6418664935682848  0.7941699810274518  0.2837319771365887
  0.2500000000000000 -0.0000000000000000  0.0000000000000000
  0.7500000000000000 -0.0000000000000000  0.0000000000000000
  0.6121117514314549  0.3266628609755430  0.2242244928628960
  0.3878882485685452  0.6733371390244571  0.7757755071371040
  0.8878882485686624  0.1024393581126525  0.7757755071371014
  0.1121117514313376  0.8975606418873475  0.2242244928628986

  0.00000000E+00  0.00000000E+00  0.00000000E+00
  0.00000000E+00  0.00000000E+00  0.00000000E+00
  0.00000000E+00  0.00000000E+00  0.00000000E+00
  0.00000000E+00  0.00000000E+00  0.00000000E+00
  0.00000000E+00  0.00000000E+00  0.00000000E+00
  0.00000000E+00  0.00000000E+00  0.00000000E+00
  0.00000000E+00  0.00000000E+00  0.00000000E+00
  0.00000000E+00  0.00000000E+00  0.00000000E+00
  0.00000000E+00  0.00000000E+00  0.00000000E+00
  0.00000000E+00  0.00000000E+00  0.00000000E+00
