H2O molecule in gas phase               
   1.0000000000000000     
    20.0000000000000000    0.0000000000000000    0.0000000000000000
     0.0000000000000000   20.0000000000000000    0.0000000000000000
     0.0000000000000000    0.0000000000000000   20.0000000000000000
   O    H 
     1     2
Direct
  0.5000000000000000  0.5000000000000000  0.4997872344739111
  0.5384271641648154  0.5000000000000000  0.5295413827630437
  0.4615728358351845  0.5000000000000000  0.5295413827630437

  0.00000000E+00  0.00000000E+00  0.00000000E+00
  0.00000000E+00  0.00000000E+00  0.00000000E+00
  0.00000000E+00  0.00000000E+00  0.00000000E+00
