Na3SbS4 tetragonal P-42_1c (No.114) conv
   1.0000000000000000     
     6.6788351750537878    0.0000000000000000    0.0000000000000000
     0.0000000000000000    6.6788351750537878   -0.0000000000000000
     0.0000000000000000    0.0000000000000000    6.7602295928439409
   Na   Sb   S 
     6     2     8
Direct
  0.0000000000000000  0.0000000000000000  0.0000000000000000
  0.5000000000000000  0.5000000000000000  0.5000000000000000
  0.0000000000000000  0.5000000000000000  0.4767172667881086
  0.5000000000000000  0.0000000000000000  0.5232827332118916
  0.5000000000000000  0.0000000000000000  0.0232827332118914
  0.0000000000000000  0.5000000000000000  0.9767172667881084
  0.0000000000000000  0.0000000000000000  0.5000000000000000
  0.5000000000000000  0.5000000000000000  0.0000000000000000
  0.2891115707526172  0.3059302534574396  0.1998225270904562
  0.7108884292473829  0.6940697465425604  0.1998225270904562
  0.6940697465425604  0.2891115707526172  0.8001774729095441
  0.3059302534574396  0.7108884292473829  0.8001774729095441
  0.2108884292473828  0.8059302534574396  0.3001774729095437
  0.7891115707526171  0.1940697465425605  0.3001774729095437
  0.1940697465425605  0.2108884292473828  0.6998225270904559
  0.8059302534574396  0.7891115707526171  0.6998225270904559

  0.00000000E+00  0.00000000E+00  0.00000000E+00
  0.00000000E+00  0.00000000E+00  0.00000000E+00
  0.00000000E+00  0.00000000E+00  0.00000000E+00
  0.00000000E+00  0.00000000E+00  0.00000000E+00
  0.00000000E+00  0.00000000E+00  0.00000000E+00
  0.00000000E+00  0.00000000E+00  0.00000000E+00
  0.00000000E+00  0.00000000E+00  0.00000000E+00
  0.00000000E+00  0.00000000E+00  0.00000000E+00
  0.00000000E+00  0.00000000E+00  0.00000000E+00
  0.00000000E+00  0.00000000E+00  0.00000000E+00
  0.00000000E+00  0.00000000E+00  0.00000000E+00
  0.00000000E+00  0.00000000E+00  0.00000000E+00
  0.00000000E+00  0.00000000E+00  0.00000000E+00
  0.00000000E+00  0.00000000E+00  0.00000000E+00
  0.00000000E+00  0.00000000E+00  0.00000000E+00
  0.00000000E+00  0.00000000E+00  0.00000000E+00
