Na3SbS4                                 
   1.0000000000000000     
     6.7569211749156937    0.0000000000000000    0.0000000000000000
    -0.0000000000000000    6.7569211749156937    0.0000000000000000
    -0.0000000000000000   -0.0000000000000000    6.7569211749156937
   Na   Sb   S 
     6     2     8
Direct
  0.0000000000000000 -0.0000000000000000  0.5000000000000000
  0.0000000000000000  0.5000000000000000  0.0000000000000000
  0.5000000000000000 -0.0000000000000000  0.0000000000000000
  0.5000000000000000  0.5000000000000000  0.0000000000000000
  0.5000000000000000 -0.0000000000000000  0.5000000000000000
  0.0000000000000000  0.5000000000000000  0.5000000000000000
  0.0000000000000000 -0.0000000000000000  0.0000000000000000
  0.5000000000000000  0.5000000000000000  0.5000000000000000
  0.2994788492566102  0.2994788492566102  0.2994788492566102
  0.2005211507433898  0.2005211507433898  0.7994788492566101
  0.7994788492566101  0.2005211507433898  0.2005211507433898
  0.2005211507433898  0.7994788492566101  0.2005211507433898
  0.7994788492566101  0.7994788492566101  0.7994788492566101
  0.7005211607433908  0.7005211607433908  0.2994788392566093
  0.2994788392566093  0.7005211607433908  0.7005211607433908
  0.7005211607433908  0.2994788392566093  0.7005211607433908

  0.00000000E+00  0.00000000E+00  0.00000000E+00
  0.00000000E+00  0.00000000E+00  0.00000000E+00
  0.00000000E+00  0.00000000E+00  0.00000000E+00
  0.00000000E+00  0.00000000E+00  0.00000000E+00
  0.00000000E+00  0.00000000E+00  0.00000000E+00
  0.00000000E+00  0.00000000E+00  0.00000000E+00
  0.00000000E+00  0.00000000E+00  0.00000000E+00
  0.00000000E+00  0.00000000E+00  0.00000000E+00
  0.00000000E+00  0.00000000E+00  0.00000000E+00
  0.00000000E+00  0.00000000E+00  0.00000000E+00
  0.00000000E+00  0.00000000E+00  0.00000000E+00
  0.00000000E+00  0.00000000E+00  0.00000000E+00
  0.00000000E+00  0.00000000E+00  0.00000000E+00
  0.00000000E+00  0.00000000E+00  0.00000000E+00
  0.00000000E+00  0.00000000E+00  0.00000000E+00
  0.00000000E+00  0.00000000E+00  0.00000000E+00
