Na3SbS4 tetragonal P-42_1c (No.114) conventional cell (Z=2) from Table I
1.0
  7.160000  0.000000  0.000000
  0.000000  7.160000  0.000000
  0.000000  0.000000  7.290000
Na Sb S
6 2 8
Direct
# Na (2a) -> (0,0,0) generates: (0,0,0) and (1/2,1/2,1/2)
  0.000000  0.000000  0.000000
  0.500000  0.500000  0.500000
# Na (4d) seed (0,1/2,z) with z=0.44 generates 4 positions
  0.000000  0.500000  0.440000
  0.500000  0.000000  0.560000
  0.500000  0.000000  0.060000
  0.000000  0.500000  0.940000
# Sb (2b) -> (0,0,1/2) generates: (0,0,1/2) and (1/2,1/2,0)
  0.000000  0.000000  0.500000
  0.500000  0.500000  0.000000
# S (8e) seed (x,y,z) with (0.29,0.33,0.19) generates 8 positions
  0.290000  0.330000  0.190000
  0.710000  0.670000  0.190000
  0.670000  0.290000  0.810000
  0.330000  0.710000  0.810000
  0.210000  0.830000  0.310000
  0.790000  0.170000  0.310000
  0.170000  0.210000  0.690000
  0.830000  0.790000  0.690000