Na3SbS4
1.0
  7.1669964200  0.0000000000  0.0000000000
  0.0000000000  7.1669964200  0.0000000000
  0.0000000000  0.0000000000  7.1669964200
  Na  Sb  S
  6  2  8
Direct
  0.0000000000  0.0000000000  0.5000000000
  0.0000000000  0.5000000000  0.0000000000
  0.5000000000  0.0000000000  0.0000000000
  0.5000000000  0.5000000000  0.0000000000
  0.5000000000  0.0000000000  0.5000000000
  0.0000000000  0.5000000000  0.5000000000
  0.0000000000  0.0000000000  0.0000000000
  0.5000000000  0.5000000000  0.5000000000
  0.3109426500  0.3109426500  0.3109426500
  0.1890573500  0.1890573500  0.8109426500
  0.8109426500  0.1890573500  0.1890573500
  0.1890573500  0.8109426500  0.1890573500
  0.8109426500  0.8109426500  0.8109426500
  0.6890573600  0.6890573600  0.3109426400
  0.3109426400  0.6890573600  0.6890573600
  0.6890573600  0.3109426400  0.6890573600
