JVASP-12818_Na5InS4 NEB_v2 image 05     
   1.0000000000000000     
     6.8330688911791304    0.0000000000000000   -0.1272470229470229
    -0.0000000000000010   17.6718505513838551    0.0000000000000010
    -0.0048172062806638    0.0000000000000000    7.8804846921668430
   Na   In   S 
    19     4    16
Direct
  0.4968830341708852  0.3154116964632578  0.7617442583524436
  0.3382159992612728  0.0129085986404860  0.3330374358101622
  0.3537563940633461  0.2396707292309017  0.3422188546508522
  0.6429767069841219  0.4855142902646890  0.6789240987157825
  0.9463645756130390  0.1355220221849933  0.5310575507907842
  0.0234229302399385  0.3705763315670865  0.4962285170856973
  0.6720097708087494  0.1282772667235719  0.1531623969882929
  0.9947671124187565  0.0016695137340932  0.9962017405586607
  0.0224796771773654  0.2567163681015998  0.9815502484642735
  0.6525119998333935  0.7618347276939517  0.6620245401904583
  0.3437478822072109  0.5106929108192233  0.3391671482405840
  0.3447909660701569  0.7381256152748961  0.3329209279393410
  0.6528179459727710  0.9885812815035067  0.6623390509604334
  0.9639281466799261  0.6229479397476538  0.5291358525669736
  0.0296524057130441  0.8755226723261984  0.4706502834354040
  0.6771986460502859  0.6202120175508412  0.1538709918798631
  0.3313439751220031  0.8754832192886255  0.8432724278716748
  0.0467469327962462  0.4874977294771128  0.9936148697015739
  0.9964136836396236  0.7500371449448622  0.9995676582744366
  0.6557591673792800  0.3762591506809443  0.1776763313079428
  0.3484899342755980  0.1246403384132790  0.8145350875596549
  0.6445534348136022  0.8754227416189408  0.1794489027621182
  0.3485720832281487  0.6268667826170926  0.8179749179925011
  0.7810849265003554  0.3757732558736748  0.8856430815956671
  0.2375073725574666  0.1267103995275605  0.1156375723488736
  0.2269251935497323  0.0056473391177931  0.6680835565652714
  0.7672838477641051  0.2581535483042074  0.3311054585535729
  0.7674637798023909  0.4921977309815517  0.3430087111098672
  0.2197622800860799  0.2397845431009813  0.6649751821085914
  0.7159201884321718  0.1235943795129444  0.8166916680446406
  0.2855557889707185  0.3752283076528755  0.1854073376630723
  0.7588793433102552  0.8750368745761250  0.8800461690826182
  0.2374924748854852  0.6245511670303614  0.1178998341932171
  0.2310012537634165  0.5089009713628201  0.6693445769388191
  0.7659103272727918  0.7567022882399215  0.3273811061585121
  0.7644444422080738  0.9936744801523645  0.3280783380580701
  0.2274855185717826  0.7447552448209578  0.6676806169083136
  0.7179253776966661  0.6262638085891794  0.8148559577972492
  0.2743155279597573  0.8750937625013222  0.1817584953336038

             NaN             NaN             NaN
             NaN             NaN             NaN
             NaN             NaN             NaN
             NaN             NaN             NaN
             NaN             NaN             NaN
             NaN             NaN             NaN
             NaN             NaN             NaN
             NaN             NaN             NaN
             NaN             NaN             NaN
             NaN             NaN             NaN
             NaN             NaN             NaN
             NaN             NaN             NaN
             NaN             NaN             NaN
             NaN             NaN             NaN
             NaN             NaN             NaN
             NaN             NaN             NaN
             NaN             NaN             NaN
             NaN             NaN             NaN
             NaN             NaN             NaN
             NaN             NaN             NaN
             NaN             NaN             NaN
             NaN             NaN             NaN
             NaN             NaN             NaN
             NaN             NaN             NaN
             NaN             NaN             NaN
             NaN             NaN             NaN
             NaN             NaN             NaN
             NaN             NaN             NaN
             NaN             NaN             NaN
             NaN             NaN             NaN
             NaN             NaN             NaN
             NaN             NaN             NaN
             NaN             NaN             NaN
             NaN             NaN             NaN
             NaN             NaN             NaN
             NaN             NaN             NaN
             NaN             NaN             NaN
             NaN             NaN             NaN
             NaN             NaN             NaN
