JVASP-12818_Na5InS4 NEB_v2 image 05
  1.0
      6.8330688911791304      0.0000000000000000     -0.1272470229470229
     -0.0000000000000010     17.6718505513838551      0.0000000000000010
     -0.0048172062806638      0.0000000000000000      7.8804846921668430
  Na  In  S
  19  4  16
Direct
  0.4968830341708868  0.3154116964632610  0.7617442583524414
  0.3382159992612748  0.0129085986404860  0.3330374358101587
  0.3537563940633484  0.2396707292309039  0.3422188546508506
  0.6429767069841197  0.4855142902646856  0.6789240987157861
  0.9463645756130408  0.1355220221849920  0.5310575507907855
  0.0234229302399419  0.3705763315670849  0.4962285170856988
  0.6720097708087495  0.1282772667235721  0.1531623969882952
  0.9947671124187567  0.0016695137340914  0.9962017405586600
  0.0224796771773655  0.2567163681015996  0.9815502484642767
  0.6525119998333917  0.7618347276939534  0.6620245401904566
  0.3437478822072143  0.5106929108192210  0.3391671482405870
  0.3447909660701580  0.7381256152748945  0.3329209279393415
  0.6528179459727703  0.9885812815035084  0.6623390509604303
  0.9639281466799259  0.6229479397476536  0.5291358525669716
  0.0296524057130454  0.8755226723261975  0.4706502834354048
  0.6771986460502843  0.6202120175508401  0.1538709918798604
  0.3313439751220038  0.8754832192886259  0.8432724278716722
  0.0467469327962430  0.4874977294771095  0.9936148697015719
  0.9964136836396226  0.7500371449448611  0.9995676582744376
  0.6557591673792791  0.3762591506809458  0.1776763313079422
  0.3484899342755983  0.1246403384132806  0.8145350875596560
  0.6445534348136028  0.8754227416189408  0.1794489027621211
  0.3485720832281488  0.6268667826170904  0.8179749179925015
  0.7810849265003545  0.3757732558736773  0.8856430815956642
  0.2375073725574641  0.1267103995275619  0.1156375723488736
  0.2269251935497311  0.0056473391177915  0.6680835565652729
  0.7672838477641076  0.2581535483042050  0.3311054585535724
  0.7674637798023902  0.4921977309815513  0.3430087111098704
  0.2197622800860787  0.2397845431009810  0.6649751821085903
  0.7159201884321720  0.1235943795129417  0.8166916680446370
  0.2855557889707157  0.3752283076528727  0.1854073376630707
  0.7588793433102584  0.8750368745761230  0.8800461690826186
  0.2374924748854839  0.6245511670303643  0.1178998341932155
  0.2310012537634177  0.5089009713628221  0.6693445769388213
  0.7659103272727940  0.7567022882399179  0.3273811061585151
  0.7644444422080707  0.9936744801523635  0.3280783380580685
  0.2274855185717800  0.7447552448209576  0.6676806169083154
  0.7179253776966654  0.6262638085891801  0.8148559577972494
  0.2743155279597543  0.8750937625013248  0.1817584953336062
