Na40 Al8 S32                            
   1.0000000000000000     
    12.1026382039385112   -0.0000000000000000    0.0000000000000007
    -0.0000000000000004    7.0938170788834114    0.0000000000000004
     0.0000000000000000    0.0000000000000000   21.6510149562332330
   Na   Al   S 
    40     8    32
Direct
  0.3611009323721044  0.8553206708001099  0.4766471501156008
  0.5614697171780251  0.4785096834201133  0.0154209313274995
  0.1543198015254717  0.1413457894860529  0.9996968126271772
  0.1206054295702566  0.2957312357744905  0.4820557872343588
  0.3308801569842298  0.6773865897477021  1.0079082081908723
  0.6810982896803427  0.0505348910210748  0.4924364276315730
  0.8458771933341813  0.5206670882896496  0.4830864089301853
  0.8856491395085122  0.9340663195746782  0.0005519944017111
  0.3024259306974932  0.5261629536490577  0.3513858835170247
  0.6802084119423504  0.1120365443622897  0.1406199998371234
  0.2124371537799649  0.4903296659330709  0.8942300665962833
  0.1679313434412380  0.0057224902663209  0.3735847285782198
  0.2866269601094115  0.9992674819588822  0.8610807934317180
  0.7791545909682805  0.4373415594003678  0.6220774104978234
  0.8254675839924699  0.9040606412366785  0.6172498758766328
  0.7391532965657158  0.6007993375161725  0.1185857036241907
  0.5391309474643977  0.5738763846028685  0.4547352202787037
  0.3568642657981440  0.2126417248700356  0.1260196002627198
  0.9080130909203326  0.4445041072317115  0.9284191405308110
  0.9668100411464033 -0.1146904394301673  0.4867760924410502
  0.5881534582085779  1.0543424812848048  0.9424424947517636
  0.4357966573629447  0.3406453282756037  0.5640075345713069
  0.1928646208124696  0.6429238730153966  0.5836612485726967
  0.0065540147225333  0.5857395281610143  0.0727094768157716
  0.6219976840120237  0.5144918961595850  0.2760121040619873
  0.4041558854431278  0.8760291433868158  0.2399307844016134
  0.8827687370685865  0.5246897484118768  0.7567402096346659
  0.9483814503055400  0.8198778027449400  0.2407054597634434
  0.3594562192652550  0.6629400348059724  0.7702102784798899
  0.5626107538963736  1.3772308245014542  0.7299273886210791
  0.1098910041743329 -0.6817497165898971  0.7548446666192502
  0.0884763331917972  0.3424366228529139  0.2474439329302239
  0.8432854788465033  0.1166314666793478  0.8339350892106908
  0.0819765533010275 -0.1098883423468977  0.7141441324222535
  0.6417976693506630  1.0169881016428166  0.2979488366311852
  0.6529093972383152  0.8913677281743299  0.7995803366579582
  0.8395082560697302  0.2136852201731363  0.3472241045430667
  0.1467991766472924  0.9420526613621669  0.1698346575826043
  0.2919969933432057  0.5415393446799975  0.1962851697870164
  0.3639603446743104  0.0887064514317577  0.6749038922124833
  0.0399703036084361  0.8592718251908570  0.8792270096650904
  1.0096849975856892  0.2672526661088497  0.6247632478581885
  0.4407127216696005  0.1581313910208385  0.3616791129155800
  0.4381949750039850  0.3479899175252354  0.8574903697966856
  0.0389245724212902  0.6252728644932009  0.3754509266343131
  0.9408879447111500  0.1789760987204732  0.1311642128823752
  0.5105049633638256  0.7413948263548525  0.1245478903674687
  0.5817870403102229  0.8139849418756151  0.6117141822643273
  0.3346560401997419  0.2435184460043552  0.9527151955031756
  0.6994419272868179  0.7258245090412481  0.5337980853864274
  0.1325809976492985  0.7044821738893071  0.4598700280167682
  0.0993107108323140  0.7665179517394267  0.9756637991611142
  0.3709969168623663  0.2510517353109947  0.4511393400186777
  0.6179146529151087  0.8452247506261102  0.0463553215973789
  0.8441109358805007  0.3058118009601763  0.0450037653993505
  0.9021402958262041  0.1930884116839343  0.5462468616496294
  0.4737648875691532  0.8348587200259987  0.3616285398003407
  0.5010566559202155  0.4375311626061211  0.1488212860402598
  0.0264472541852725  0.1781759036372109  0.8828298001389774
  0.0499463828622037  0.3000484619860929  0.3640293087861070
  0.4454034440592867  0.6622324882057599  0.8781346403592604
  0.6013271600420718  0.1100136819289424  0.6303141242773943
  0.9935958686471161  0.6217006779982031  0.6311008737210934
  0.9080260852550447  0.8701389943647900  0.1328706796250635
  0.1778799266111121  0.1752241555779488  0.6268335824082892
  0.8727483414115753  0.7647682666885682  0.8560412587079104
  0.3378564672754992  0.8468867785206570  0.1182812066385234
  0.4080897698550640  0.6907663168071971  0.5894876220763048
  0.1309163732863021  0.2808907086243490  0.1211570211441804
  0.8686813505062769  0.7295529290778680  0.3696844274124982
  0.6367638279716450  0.2878036362159045  0.3779591346950315
  0.6346508503401496  0.2525097087266034  0.8485178479065731
  0.6284227522028514  0.8261891239505946  0.2027828911467405
  0.3425952918472238  0.2454337330705025  0.2784076385581826
  0.9179506802290351  0.1403913299394261  0.7155153104823797
  0.8663596644853572  0.3526656687763542  0.2098828449837431
  0.6723109411769936  0.6913431494424384  0.7008364255818446
  0.3369543757427094  0.2796087641463660  0.7735669508610540
  0.1595438832107918  0.7349317642123749  0.8094252743706518
  0.1729230024209005  0.7244971466267783  0.2856740648398154

 -0.81772713E-02 -0.97357393E-03  0.74579366E-02
 -0.50383257E-03 -0.10533077E-01  0.13426326E-02
  0.17089275E-02 -0.29076957E-02  0.89342312E-02
 -0.20582162E-02 -0.53693835E-02  0.29771501E-02
 -0.12754442E-02 -0.42204699E-02  0.92424775E-02
  0.93664881E-02  0.98256660E-02 -0.88193876E-03
 -0.11979906E-02 -0.75892937E-02 -0.10186456E-01
  0.15400664E-02  0.76229894E-03  0.35838269E-02
  0.74681045E-02  0.45104493E-02 -0.73147224E-02
 -0.30210960E-02  0.35521576E-02  0.17442778E-02
 -0.89435092E-02  0.39313218E-03  0.42397700E-02
 -0.68570601E-02  0.45138169E-02 -0.61633238E-02
 -0.43163476E-02  0.11142829E-01  0.40700984E-02
  0.66361791E-03  0.69597858E-02 -0.39360024E-02
 -0.61310110E-02 -0.24124263E-03 -0.44789428E-02
  0.63481441E-02 -0.20087599E-02 -0.66248730E-02
  0.33105406E-03  0.37737743E-02 -0.10070427E-01
 -0.83093350E-02 -0.60044974E-02  0.35341185E-02
 -0.18131613E-02 -0.10598607E-01  0.77592751E-02
  0.10604712E-01  0.88364220E-02  0.65796184E-02
  0.54940345E-02 -0.13756422E-02 -0.52242411E-02
  0.56937786E-03 -0.28373432E-02  0.11871379E-02
 -0.31181113E-02  0.26594338E-03 -0.34134192E-02
  0.59536000E-02 -0.13269865E-02 -0.72925935E-02
 -0.25256645E-03  0.81045312E-02  0.21452213E-02
 -0.97753295E-02 -0.26977511E-02 -0.12496013E-01
 -0.78174168E-02 -0.24989883E-02 -0.48654836E-02
 -0.32298977E-02  0.29505539E-02  0.71217145E-02
  0.83190632E-02 -0.99000488E-03 -0.11320226E-02
 -0.85114252E-02 -0.76538732E-03 -0.24691032E-02
 -0.71371408E-02 -0.21089917E-02 -0.51246607E-03
  0.19848644E-03 -0.35098453E-02 -0.41278718E-02
  0.25622932E-02 -0.27355596E-03  0.44187863E-02
  0.73589893E-02  0.92757301E-03 -0.31700036E-02
  0.51580568E-02  0.25254861E-02  0.33805799E-02
 -0.85839130E-03 -0.21346690E-02 -0.43255547E-02
  0.11717671E-02 -0.68627354E-03 -0.11910795E-02
  0.66368639E-03 -0.17048591E-02 -0.10972846E-01
  0.11487513E-02  0.71061243E-02 -0.92362526E-02
  0.61105485E-03  0.38806614E-02  0.62718921E-02
 -0.31373537E-02 -0.66180314E-02 -0.43616193E-02
 -0.85982591E-02  0.84709383E-02  0.16285972E-02
 -0.13334181E-02  0.24504176E-03 -0.13815682E-02
  0.50127877E-02  0.46361814E-02  0.54508876E-02
 -0.86247605E-02  0.24962898E-02  0.27286415E-02
  0.11197578E-02 -0.11432773E-01  0.12175233E-01
  0.19676825E-02  0.23374972E-02  0.10214624E-01
 -0.30834445E-02  0.23939309E-02  0.58265695E-02
 -0.42353113E-02  0.91036324E-02  0.19789555E-02
  0.14280606E-02 -0.69209698E-02 -0.75609321E-03
  0.56683258E-02 -0.60751542E-02 -0.76664324E-03
  0.12681884E-02  0.68170425E-02 -0.77670322E-03
 -0.30078526E-02 -0.28376326E-02  0.26028417E-02
  0.52689902E-02 -0.77936026E-02 -0.72275059E-02
 -0.53771192E-03  0.60941564E-02 -0.94662353E-02
  0.21548872E-02  0.59391481E-02  0.21031326E-03
 -0.36616753E-02  0.65245631E-02 -0.34707459E-02
 -0.20065817E-02 -0.67947297E-02  0.16266703E-01
  0.49836360E-02 -0.31302310E-02 -0.72367378E-03
  0.20932516E-02 -0.13878147E-02  0.95929307E-02
  0.10159086E-02  0.26177795E-03 -0.58259632E-02
 -0.71049757E-02 -0.97495135E-02 -0.55648484E-02
  0.21539536E-04 -0.73708616E-02  0.37369481E-02
  0.13888122E-02  0.75747483E-02 -0.33778272E-02
  0.81656009E-03  0.51123178E-02 -0.22748296E-04
 -0.18500537E-02 -0.41603368E-02 -0.40876258E-02
  0.82743185E-03 -0.50415372E-02  0.88385705E-02
 -0.59493137E-02  0.58211242E-02  0.58856206E-02
 -0.43269258E-02  0.34705231E-02 -0.52493256E-02
  0.11705143E-01 -0.99356775E-03 -0.26083385E-03
  0.28583076E-02  0.59814508E-02 -0.10146336E-02
  0.66963108E-02 -0.15566108E-01 -0.38220471E-02
  0.32784450E-02 -0.86905738E-02  0.46147344E-02
  0.10430588E-02  0.46179671E-02 -0.76638263E-03
  0.27593100E-03  0.32287650E-02 -0.83172854E-02
  0.14084294E-02  0.11957024E-02 -0.85578527E-03
  0.59054487E-02  0.47047153E-03  0.84060062E-03
  0.25218726E-02 -0.22392037E-02  0.51457903E-02
 -0.51262771E-02 -0.51238082E-03  0.79209801E-02
  0.72794729E-03  0.10137609E-01 -0.79996641E-02

           1
   2.0000000000000000     
 -0.43010900E+00  0.86267730E-02  0.86991864E-02 -0.43877198E+00
  0.35974961E+00  0.85504619E+00  0.47733607E+00
  0.56138646E+00  0.47554003E+00  0.15544956E-01
  0.15460221E+00  0.14052601E+00  0.52210707E-03
  0.12026530E+00  0.29421742E+00  0.48233080E+00
  0.33066939E+00  0.67619669E+00  0.87619767E-02
  0.68264613E+00  0.53305097E-01  0.49235496E+00
  0.84567922E+00  0.51852740E+00  0.48214544E+00
  0.88590364E+00  0.93428124E+00  0.88304834E-03
  0.30366006E+00  0.52743461E+00  0.35071019E+00
  0.67970917E+00  0.11303802E+00  0.14078113E+00
  0.21095921E+00  0.49044050E+00  0.89462171E+00
  0.16679819E+00  0.69950962E-02  0.37301540E+00
  0.28591367E+00  0.24090428E-02  0.86145677E+00
  0.77926426E+00  0.43930377E+00  0.62171382E+00
  0.82445441E+00  0.90399263E+00  0.61683614E+00
  0.74020235E+00  0.60023300E+00  0.11797373E+00
  0.53918566E+00  0.57494035E+00  0.45380497E+00
  0.35549112E+00  0.21094884E+00  0.12634606E+00
  0.90771346E+00  0.44151598E+00  0.92913590E+00
  0.96856250E+00  0.88780086E+00  0.48738388E+00
  0.58906137E+00  0.53954639E-01  0.94195991E+00
  0.43589075E+00  0.33984538E+00  0.56411720E+00
  0.19234934E+00  0.64299885E+00  0.58334594E+00
  0.75378663E-02  0.58536540E+00  0.72035828E-01
  0.62195595E+00  0.51677685E+00  0.27621027E+00
  0.40254048E+00  0.87526855E+00  0.23877647E+00
  0.88147688E+00  0.52398519E+00  0.75629076E+00
  0.94784770E+00  0.82070967E+00  0.24136332E+00
  0.36083097E+00  0.66266092E+00  0.77010571E+00
  0.56120421E+00  0.37701503E+00  0.72969931E+00
  0.10871157E+00  0.31765568E+00  0.75479733E+00
  0.88509134E-01  0.34144707E+00  0.24706262E+00
  0.84370891E+00  0.11655434E+00  0.83434327E+00
  0.83192650E-01  0.89037317E+00  0.71385131E+00
  0.64265005E+00  0.17700126E-01  0.29826112E+00
  0.65276755E+00  0.89076589E+00  0.79918077E+00
  0.83970189E+00  0.21349174E+00  0.34711408E+00
  0.14690885E+00  0.94157200E+00  0.16882105E+00
  0.29218683E+00  0.54354281E+00  0.19543198E+00
  0.36406132E+00  0.89800548E-01  0.67548325E+00
  0.39451846E-01  0.85740597E+00  0.87882411E+00
  0.82641075E-02  0.26964093E+00  0.62491369E+00
  0.44049237E+00  0.15820048E+00  0.36155149E+00
  0.43902335E+00  0.34929702E+00  0.85799389E+00
  0.37499303E-01  0.62597666E+00  0.37570298E+00
  0.94107299E+00  0.17575279E+00  0.13228889E+00
  0.51083013E+00  0.74205385E+00  0.12549146E+00
  0.58127749E+00  0.81465988E+00  0.61225241E+00
  0.33395614E+00  0.24608508E+00  0.95289800E+00
  0.69967792E+00  0.72387324E+00  0.53372824E+00
  0.13351771E+00  0.70276937E+00  0.45979921E+00
  0.99520283E-01  0.76843992E+00  0.97559205E+00
  0.37049986E+00  0.25025171E+00  0.45137978E+00
  0.61878537E+00  0.84302746E+00  0.45687685E-01
  0.84402208E+00  0.30752996E+00  0.44129327E-01
  0.90249640E+00  0.19476287E+00  0.54626629E+00
  0.47315978E+00  0.83669823E+00  0.36130793E+00
  0.50072506E+00  0.43561549E+00  0.15032391E+00
  0.27270816E-01  0.17729338E+00  0.88276295E+00
  0.50292299E-01  0.29965719E+00  0.36491545E+00
  0.44557133E+00  0.66230629E+00  0.87759647E+00
  0.60015304E+00  0.10726495E+00  0.62980007E+00
  0.99359943E+00  0.61962257E+00  0.63144607E+00
  0.90825559E+00  0.87227459E+00  0.13255865E+00
  0.17801487E+00  0.17666550E+00  0.62683148E+00
  0.87244261E+00  0.76359532E+00  0.85566367E+00
  0.33799320E+00  0.84546539E+00  0.11909766E+00
  0.40710663E+00  0.69240750E+00  0.59003130E+00
  0.13020133E+00  0.28186917E+00  0.12067212E+00
  0.87061566E+00  0.72927281E+00  0.36966033E+00
  0.63723617E+00  0.28949002E+00  0.37786541E+00
  0.63575744E+00  0.24812107E+00  0.84816479E+00
  0.62896453E+00  0.82373894E+00  0.20320917E+00
  0.34276766E+00  0.24673570E+00  0.27833684E+00
  0.91799628E+00  0.14130163E+00  0.71474701E+00
  0.86659241E+00  0.35300278E+00  0.20980379E+00
  0.67328684E+00  0.69147579E+00  0.70091408E+00
  0.33737112E+00  0.27897745E+00  0.77404229E+00
  0.15869675E+00  0.73478731E+00  0.81015697E+00
  0.17304330E+00  0.72735530E+00  0.28493510E+00
  0.00000000E+00  0.00000000E+00  0.00000000E+00
  0.00000000E+00  0.00000000E+00  0.00000000E+00
  0.00000000E+00  0.00000000E+00  0.00000000E+00
  0.00000000E+00  0.00000000E+00  0.00000000E+00
  0.00000000E+00  0.00000000E+00  0.00000000E+00
  0.00000000E+00  0.00000000E+00  0.00000000E+00
  0.00000000E+00  0.00000000E+00  0.00000000E+00
  0.00000000E+00  0.00000000E+00  0.00000000E+00
  0.00000000E+00  0.00000000E+00  0.00000000E+00
  0.00000000E+00  0.00000000E+00  0.00000000E+00
  0.00000000E+00  0.00000000E+00  0.00000000E+00
  0.00000000E+00  0.00000000E+00  0.00000000E+00
  0.00000000E+00  0.00000000E+00  0.00000000E+00
  0.00000000E+00  0.00000000E+00  0.00000000E+00
  0.00000000E+00  0.00000000E+00  0.00000000E+00
  0.00000000E+00  0.00000000E+00  0.00000000E+00
  0.00000000E+00  0.00000000E+00  0.00000000E+00
  0.00000000E+00  0.00000000E+00  0.00000000E+00
  0.00000000E+00  0.00000000E+00  0.00000000E+00
  0.00000000E+00  0.00000000E+00  0.00000000E+00
  0.00000000E+00  0.00000000E+00  0.00000000E+00
  0.00000000E+00  0.00000000E+00  0.00000000E+00
  0.00000000E+00  0.00000000E+00  0.00000000E+00
  0.00000000E+00  0.00000000E+00  0.00000000E+00
  0.00000000E+00  0.00000000E+00  0.00000000E+00
  0.00000000E+00  0.00000000E+00  0.00000000E+00
  0.00000000E+00  0.00000000E+00  0.00000000E+00
  0.00000000E+00  0.00000000E+00  0.00000000E+00
  0.00000000E+00  0.00000000E+00  0.00000000E+00
  0.00000000E+00  0.00000000E+00  0.00000000E+00
  0.00000000E+00  0.00000000E+00  0.00000000E+00
  0.00000000E+00  0.00000000E+00  0.00000000E+00
  0.00000000E+00  0.00000000E+00  0.00000000E+00
  0.00000000E+00  0.00000000E+00  0.00000000E+00
  0.00000000E+00  0.00000000E+00  0.00000000E+00
  0.00000000E+00  0.00000000E+00  0.00000000E+00
  0.00000000E+00  0.00000000E+00  0.00000000E+00
  0.00000000E+00  0.00000000E+00  0.00000000E+00
  0.00000000E+00  0.00000000E+00  0.00000000E+00
  0.00000000E+00  0.00000000E+00  0.00000000E+00
  0.00000000E+00  0.00000000E+00  0.00000000E+00
  0.00000000E+00  0.00000000E+00  0.00000000E+00
  0.00000000E+00  0.00000000E+00  0.00000000E+00
  0.00000000E+00  0.00000000E+00  0.00000000E+00
  0.00000000E+00  0.00000000E+00  0.00000000E+00
  0.00000000E+00  0.00000000E+00  0.00000000E+00
  0.00000000E+00  0.00000000E+00  0.00000000E+00
  0.00000000E+00  0.00000000E+00  0.00000000E+00
  0.00000000E+00  0.00000000E+00  0.00000000E+00
  0.00000000E+00  0.00000000E+00  0.00000000E+00
  0.00000000E+00  0.00000000E+00  0.00000000E+00
  0.00000000E+00  0.00000000E+00  0.00000000E+00
  0.00000000E+00  0.00000000E+00  0.00000000E+00
  0.00000000E+00  0.00000000E+00  0.00000000E+00
  0.00000000E+00  0.00000000E+00  0.00000000E+00
  0.00000000E+00  0.00000000E+00  0.00000000E+00
  0.00000000E+00  0.00000000E+00  0.00000000E+00
  0.00000000E+00  0.00000000E+00  0.00000000E+00
  0.00000000E+00  0.00000000E+00  0.00000000E+00
  0.00000000E+00  0.00000000E+00  0.00000000E+00
  0.00000000E+00  0.00000000E+00  0.00000000E+00
  0.00000000E+00  0.00000000E+00  0.00000000E+00
  0.00000000E+00  0.00000000E+00  0.00000000E+00
  0.00000000E+00  0.00000000E+00  0.00000000E+00
  0.00000000E+00  0.00000000E+00  0.00000000E+00
  0.00000000E+00  0.00000000E+00  0.00000000E+00
  0.00000000E+00  0.00000000E+00  0.00000000E+00
  0.00000000E+00  0.00000000E+00  0.00000000E+00
  0.00000000E+00  0.00000000E+00  0.00000000E+00
  0.00000000E+00  0.00000000E+00  0.00000000E+00
  0.00000000E+00  0.00000000E+00  0.00000000E+00
  0.00000000E+00  0.00000000E+00  0.00000000E+00
  0.00000000E+00  0.00000000E+00  0.00000000E+00
  0.00000000E+00  0.00000000E+00  0.00000000E+00
  0.00000000E+00  0.00000000E+00  0.00000000E+00
  0.00000000E+00  0.00000000E+00  0.00000000E+00
  0.00000000E+00  0.00000000E+00  0.00000000E+00
  0.00000000E+00  0.00000000E+00  0.00000000E+00
  0.00000000E+00  0.00000000E+00  0.00000000E+00
  0.00000000E+00  0.00000000E+00  0.00000000E+00
  0.00000000E+00  0.00000000E+00  0.00000000E+00
  0.00000000E+00  0.00000000E+00  0.00000000E+00
  0.00000000E+00  0.00000000E+00  0.00000000E+00
  0.00000000E+00  0.00000000E+00  0.00000000E+00
  0.00000000E+00  0.00000000E+00  0.00000000E+00
  0.00000000E+00  0.00000000E+00  0.00000000E+00
  0.00000000E+00  0.00000000E+00  0.00000000E+00
  0.00000000E+00  0.00000000E+00  0.00000000E+00
  0.00000000E+00  0.00000000E+00  0.00000000E+00
  0.00000000E+00  0.00000000E+00  0.00000000E+00
  0.00000000E+00  0.00000000E+00  0.00000000E+00
  0.00000000E+00  0.00000000E+00  0.00000000E+00
  0.00000000E+00  0.00000000E+00  0.00000000E+00
  0.00000000E+00  0.00000000E+00  0.00000000E+00
  0.00000000E+00  0.00000000E+00  0.00000000E+00
  0.00000000E+00  0.00000000E+00  0.00000000E+00
  0.00000000E+00  0.00000000E+00  0.00000000E+00
  0.00000000E+00  0.00000000E+00  0.00000000E+00
  0.00000000E+00  0.00000000E+00  0.00000000E+00
  0.00000000E+00  0.00000000E+00  0.00000000E+00
  0.00000000E+00  0.00000000E+00  0.00000000E+00
  0.00000000E+00  0.00000000E+00  0.00000000E+00
  0.00000000E+00  0.00000000E+00  0.00000000E+00
  0.00000000E+00  0.00000000E+00  0.00000000E+00
  0.00000000E+00  0.00000000E+00  0.00000000E+00
  0.00000000E+00  0.00000000E+00  0.00000000E+00
  0.00000000E+00  0.00000000E+00  0.00000000E+00
  0.00000000E+00  0.00000000E+00  0.00000000E+00
  0.00000000E+00  0.00000000E+00  0.00000000E+00
  0.00000000E+00  0.00000000E+00  0.00000000E+00
  0.00000000E+00  0.00000000E+00  0.00000000E+00
  0.00000000E+00  0.00000000E+00  0.00000000E+00
  0.00000000E+00  0.00000000E+00  0.00000000E+00
  0.00000000E+00  0.00000000E+00  0.00000000E+00
  0.00000000E+00  0.00000000E+00  0.00000000E+00
  0.00000000E+00  0.00000000E+00  0.00000000E+00
  0.00000000E+00  0.00000000E+00  0.00000000E+00
  0.00000000E+00  0.00000000E+00  0.00000000E+00
  0.00000000E+00  0.00000000E+00  0.00000000E+00
  0.00000000E+00  0.00000000E+00  0.00000000E+00
  0.00000000E+00  0.00000000E+00  0.00000000E+00
  0.00000000E+00  0.00000000E+00  0.00000000E+00
  0.00000000E+00  0.00000000E+00  0.00000000E+00
  0.00000000E+00  0.00000000E+00  0.00000000E+00
  0.00000000E+00  0.00000000E+00  0.00000000E+00
  0.00000000E+00  0.00000000E+00  0.00000000E+00
  0.00000000E+00  0.00000000E+00  0.00000000E+00
  0.00000000E+00  0.00000000E+00  0.00000000E+00
  0.00000000E+00  0.00000000E+00  0.00000000E+00
  0.00000000E+00  0.00000000E+00  0.00000000E+00
  0.00000000E+00  0.00000000E+00  0.00000000E+00
  0.00000000E+00  0.00000000E+00  0.00000000E+00
  0.00000000E+00  0.00000000E+00  0.00000000E+00
  0.00000000E+00  0.00000000E+00  0.00000000E+00
  0.00000000E+00  0.00000000E+00  0.00000000E+00
  0.00000000E+00  0.00000000E+00  0.00000000E+00
  0.00000000E+00  0.00000000E+00  0.00000000E+00
  0.00000000E+00  0.00000000E+00  0.00000000E+00
  0.00000000E+00  0.00000000E+00  0.00000000E+00
  0.00000000E+00  0.00000000E+00  0.00000000E+00
  0.00000000E+00  0.00000000E+00  0.00000000E+00
  0.00000000E+00  0.00000000E+00  0.00000000E+00
  0.00000000E+00  0.00000000E+00  0.00000000E+00
  0.00000000E+00  0.00000000E+00  0.00000000E+00
  0.00000000E+00  0.00000000E+00  0.00000000E+00
  0.00000000E+00  0.00000000E+00  0.00000000E+00
  0.00000000E+00  0.00000000E+00  0.00000000E+00
  0.00000000E+00  0.00000000E+00  0.00000000E+00
  0.00000000E+00  0.00000000E+00  0.00000000E+00
  0.00000000E+00  0.00000000E+00  0.00000000E+00
  0.00000000E+00  0.00000000E+00  0.00000000E+00
  0.00000000E+00  0.00000000E+00  0.00000000E+00
  0.00000000E+00  0.00000000E+00  0.00000000E+00
  0.00000000E+00  0.00000000E+00  0.00000000E+00
  0.00000000E+00  0.00000000E+00  0.00000000E+00
  0.00000000E+00  0.00000000E+00  0.00000000E+00
  0.00000000E+00  0.00000000E+00  0.00000000E+00
  0.00000000E+00  0.00000000E+00  0.00000000E+00
  0.00000000E+00  0.00000000E+00  0.00000000E+00
  0.00000000E+00  0.00000000E+00  0.00000000E+00
