NMC-611 Li=1.00 (18/18 Li)
1.0
     14.8314900000      0.0000000000      0.0000000000
      0.0000000000      8.6070300000      0.0000000000
      0.0053725015      0.0000000000     14.0109989700
  Li  Ni  Mn  Co  O
  18  12  3  3  36
Direct
      0.9999900000      0.0000000000      0.0010900000
      0.0556400000      0.1703600000      0.3346200000
      0.9435200000      0.1699900000      0.6654000000
      0.8334500000      0.1689700000      0.9995100000
      0.6658600000      0.3238300000      0.0044900000
      0.5002300000      0.1650400000      0.9983200000
      0.8876300000      0.3318600000      0.3348300000
      0.2245400000      0.0000000000      0.3322500000
      0.5550700000      0.0000000000      0.3340400000
      0.2214100000      0.3387600000      0.3309300000
      0.8892400000      0.0000000000      0.3345200000
      0.7777600000      0.3338200000      0.6695200000
      0.1102100000      0.0000000000      0.6626900000
      0.4464300000      0.0000000000      0.6712800000
      0.1121900000      0.3319800000      0.6653300000
      0.7781300000      0.0000000000      0.6670100000
      0.3301900000      0.0000000000      0.0002600000
      0.6711500000      0.0000000000      0.9992800000
      0.0002300000      0.0000000000      0.4995100000
      0.0546000000      0.1678600000      0.8308400000
      0.9448700000      0.1667900000      0.1680700000
      0.8323300000      0.1666400000      0.4994900000
      0.6678900000      0.3319900000      0.4985500000
      0.5009200000      0.1650400000      0.4997200000
      0.8887900000      0.3343000000      0.8341900000
      0.2222800000      0.3338600000      0.8355500000
      0.8887400000      0.0000000000      0.8320400000
      0.7775100000      0.3318700000      0.1656100000
      0.1101500000      0.0000000000      0.1697600000
      0.1116300000      0.3351400000      0.1651500000
      0.2179900000      0.0000000000      0.8353700000
      0.4400900000      0.0000000000      0.1703300000
      0.3338900000      0.0000000000      0.5096100000
      0.5583900000      0.0000000000      0.8332500000
      0.7788100000      0.0000000000      0.1620700000
      0.6669900000      0.0000000000      0.4931100000
      0.0052700000      0.0000000000      0.2484200000
      0.9896200000      0.0000000000      0.7521500000
      0.0598900000      0.1779000000      0.5704800000
      0.0523900000      0.1731000000      0.0941800000
      0.9470700000      0.1717800000      0.9040200000
      0.9404100000      0.1774000000      0.4282600000
      0.8326600000      0.1627300000      0.2352200000
      0.6631000000      0.3432200000      0.7579800000
      0.4929700000      0.1597500000      0.2437100000
      0.0087700000      0.3395600000      0.7585800000
      0.1689800000      0.1801300000      0.2377500000
      0.3282400000      0.3284200000      0.7618700000
      0.8863600000      0.3427500000      0.5845000000
      0.2208500000      0.0000000000      0.0976700000
      0.5522200000      0.0000000000      0.0956500000
      0.2201300000      0.3400800000      0.5668800000
      0.8929800000      0.0000000000      0.0952800000
      0.2271100000      0.3439200000      0.0861900000
      0.8809700000      0.0000000000      0.5718100000
      0.5612700000      0.0000000000      0.5674000000
      0.8864500000      0.3449500000      0.0909900000
      0.2288100000      0.0000000000      0.5835400000
      0.7684800000      0.3407800000      0.9113600000
      0.1193300000      0.0000000000      0.4271200000
      0.4413000000      0.0000000000      0.4318700000
      0.1148500000      0.3427200000      0.9071600000
      0.7733700000      0.0000000000      0.4180500000
      0.1140700000      0.3425800000      0.4182900000
      0.7881000000      0.0000000000      0.9109100000
      0.4506300000      0.0000000000      0.9044100000
      0.7804700000      0.3402900000      0.4302900000
      0.1056200000      0.0000000000      0.9042900000
      0.3366400000      0.0000000000      0.2490800000
      0.6700800000      0.0000000000      0.7614700000
      0.6720000000      0.0000000000      0.2324700000
      0.3288500000      0.0000000000      0.7653400000
