Na8 S20                                 
   1.0000000000000000     
     5.8808661898692058    0.0000000000000000    0.0000000000000004
     0.0000000000000012    7.7974738975015114    0.0000000000000005
     0.0000000000000000    0.0000000000000000   14.7214289509280523
   Na   S 
     8    20
Direct
  0.2020186636769523  0.9465650146080975  0.7500000000000000
  0.7020186636769523  0.5534349853919025  0.2500000000000000
  0.2979813363230477  0.4465650146080975  0.7500000000000000
  0.7979813363230477  0.0534349853919025  0.2500000000000000
  0.0000000000000000  0.0000000000000000  0.5000000000000000
  0.5000000000000000  0.5000000000000000  0.5000000000000000
  0.5000000000000000  0.5000000000000000  0.0000000000000000
  0.0000000000000000  0.0000000000000000  0.0000000000000000
  0.1090107155482016  0.4551669643008367  0.1350591511776713
  0.6090107155482016  0.0448330356991633  0.8649408488223287
  0.3909892844517984  0.9551669643008367  0.3649408488223287
  0.8909892844517984  0.5448330356991633  0.6350591511776713
  0.8909892844517984  0.5448330356991633  0.8649408488223287
  0.3909892844517984  0.9551669643008367  0.1350591511776713
  0.6090107155482016  0.0448330356991633  0.6350591511776713
  0.1090107155482016  0.4551669643008367  0.3649408488223287
  0.2686580267474525  0.3591399667003472  0.2500000000000000
  0.7686580267474525  0.1408600332996528  0.7500000000000000
  0.2313419732525475  0.8591399667003472  0.2500000000000000
  0.7313419732525475  0.6408600332996528  0.7500000000000000
  0.8381917491695035  0.2978069149306037  0.3971546488667101
  0.3381917491695035  0.2021930850693963  0.6028453511332899
  0.6618082508304965  0.7978069149306037  0.1028453511332899
  0.1618082508304965  0.7021930850693963  0.8971546488667101
  0.1618082508304965  0.7021930850693963  0.6028453511332899
  0.6618082508304965  0.7978069149306037  0.3971546488667101
  0.3381917491695035  0.2021930850693963  0.8971546488667101
  0.8381917491695035  0.2978069149306037  0.1028453511332899

  0.00000000E+00  0.00000000E+00  0.00000000E+00
  0.00000000E+00  0.00000000E+00  0.00000000E+00
  0.00000000E+00  0.00000000E+00  0.00000000E+00
  0.00000000E+00  0.00000000E+00  0.00000000E+00
  0.00000000E+00  0.00000000E+00  0.00000000E+00
  0.00000000E+00  0.00000000E+00  0.00000000E+00
  0.00000000E+00  0.00000000E+00  0.00000000E+00
  0.00000000E+00  0.00000000E+00  0.00000000E+00
  0.00000000E+00  0.00000000E+00  0.00000000E+00
  0.00000000E+00  0.00000000E+00  0.00000000E+00
  0.00000000E+00  0.00000000E+00  0.00000000E+00
  0.00000000E+00  0.00000000E+00  0.00000000E+00
  0.00000000E+00  0.00000000E+00  0.00000000E+00
  0.00000000E+00  0.00000000E+00  0.00000000E+00
  0.00000000E+00  0.00000000E+00  0.00000000E+00
  0.00000000E+00  0.00000000E+00  0.00000000E+00
  0.00000000E+00  0.00000000E+00  0.00000000E+00
  0.00000000E+00  0.00000000E+00  0.00000000E+00
  0.00000000E+00  0.00000000E+00  0.00000000E+00
  0.00000000E+00  0.00000000E+00  0.00000000E+00
  0.00000000E+00  0.00000000E+00  0.00000000E+00
  0.00000000E+00  0.00000000E+00  0.00000000E+00
  0.00000000E+00  0.00000000E+00  0.00000000E+00
  0.00000000E+00  0.00000000E+00  0.00000000E+00
  0.00000000E+00  0.00000000E+00  0.00000000E+00
  0.00000000E+00  0.00000000E+00  0.00000000E+00
  0.00000000E+00  0.00000000E+00  0.00000000E+00
  0.00000000E+00  0.00000000E+00  0.00000000E+00
