pymatgen with grid density = 692 / number of atoms
0
Gamma
4 3 1
