Na8 S20                                 
   1.0000000000000000     
     5.8808661898692058    0.0000000000000000    0.0000000000000004
     0.0000000000000012    7.7974738975015114    0.0000000000000005
     0.0000000000000000    0.0000000000000000   14.7214289509280523
   Na   S 
     8    20
Direct
  0.2020186636769544  0.9465650146080986  0.7500000000000000
  0.7020186636769544  0.5534349853919014  0.2500000000000000
  0.2979813363230456  0.4465650146080987  0.7500000000000000
  0.7979813363230456  0.0534349853919013  0.2500000000000000
  0.0000000000000000 -0.0000000000000000  0.5000000000000000
  0.5000000000000000  0.5000000000000000  0.5000000000000000
  0.5000000000000000  0.5000000000000000 -0.0000000000000000
  0.0000000000000000 -0.0000000000000000 -0.0000000000000000
  0.1090107155481998  0.4551669643008335  0.1350591511776732
  0.6090107155481999  0.0448330356991664  0.8649408488223268
  0.3909892844518002  0.9551669643008335  0.3649408488223268
  0.8909892844518001  0.5448330356991665  0.6350591511776732
  0.8909892844518001  0.5448330356991665  0.8649408488223268
  0.3909892844518002  0.9551669643008335  0.1350591511776732
  0.6090107155481999  0.0448330356991664  0.6350591511776732
  0.1090107155481998  0.4551669643008335  0.3649408488223268
  0.2686580267474513  0.3591399667003465  0.2500000000000000
  0.7686580267474512  0.1408600332996535  0.7500000000000000
  0.2313419732525488  0.8591399667003465  0.2500000000000000
  0.7313419732525488  0.6408600332996535  0.7500000000000000
  0.8381917491695045  0.2978069149306060  0.3971546488667078
  0.3381917491695045  0.2021930850693941  0.6028453511332922
  0.6618082508304954  0.7978069149306060  0.1028453511332922
  0.1618082508304955  0.7021930850693940  0.8971546488667078
  0.1618082508304955  0.7021930850693940  0.6028453511332922
  0.6618082508304954  0.7978069149306060  0.3971546488667078
  0.3381917491695045  0.2021930850693941  0.8971546488667078
  0.8381917491695046  0.2978069149306060  0.1028453511332922

  0.00000000E+00  0.00000000E+00  0.00000000E+00
  0.00000000E+00  0.00000000E+00  0.00000000E+00
  0.00000000E+00  0.00000000E+00  0.00000000E+00
  0.00000000E+00  0.00000000E+00  0.00000000E+00
  0.00000000E+00  0.00000000E+00  0.00000000E+00
  0.00000000E+00  0.00000000E+00  0.00000000E+00
  0.00000000E+00  0.00000000E+00  0.00000000E+00
  0.00000000E+00  0.00000000E+00  0.00000000E+00
  0.00000000E+00  0.00000000E+00  0.00000000E+00
  0.00000000E+00  0.00000000E+00  0.00000000E+00
  0.00000000E+00  0.00000000E+00  0.00000000E+00
  0.00000000E+00  0.00000000E+00  0.00000000E+00
  0.00000000E+00  0.00000000E+00  0.00000000E+00
  0.00000000E+00  0.00000000E+00  0.00000000E+00
  0.00000000E+00  0.00000000E+00  0.00000000E+00
  0.00000000E+00  0.00000000E+00  0.00000000E+00
  0.00000000E+00  0.00000000E+00  0.00000000E+00
  0.00000000E+00  0.00000000E+00  0.00000000E+00
  0.00000000E+00  0.00000000E+00  0.00000000E+00
  0.00000000E+00  0.00000000E+00  0.00000000E+00
  0.00000000E+00  0.00000000E+00  0.00000000E+00
  0.00000000E+00  0.00000000E+00  0.00000000E+00
  0.00000000E+00  0.00000000E+00  0.00000000E+00
  0.00000000E+00  0.00000000E+00  0.00000000E+00
  0.00000000E+00  0.00000000E+00  0.00000000E+00
  0.00000000E+00  0.00000000E+00  0.00000000E+00
  0.00000000E+00  0.00000000E+00  0.00000000E+00
  0.00000000E+00  0.00000000E+00  0.00000000E+00
