Na8 S20
1.0
   5.7906616399999997    0.0000000000000000    0.0000000000000004
   0.0000000000000012    7.6473673700000004    0.0000000000000005
   0.0000000000000000    0.0000000000000000   14.5105346199999996
Na S
8 20
direct
   0.2016949900000000    0.9476915300000002    0.7500000000000000 Na+
   0.7016949900000000    0.5523084699999998    0.2500000000000000 Na+
   0.2983050100000000    0.4476915300000002    0.7500000000000000 Na+
   0.7983050100000000    0.0523084699999998    0.2500000000000000 Na+
   0.0000000000000000    0.0000000000000000    0.5000000000000000 Na+
   0.5000000000000000    0.5000000000000000    0.5000000000000000 Na+
   0.5000000000000000    0.5000000000000000    0.0000000000000000 Na+
   0.0000000000000000    0.0000000000000000    0.0000000000000000 Na+
   0.1101127700000000    0.4572731400000002    0.1341158900000000 S0.40-
   0.6101127700000000    0.0427268599999998    0.8658841100000000 S0.40-
   0.3898872300000000    0.9572731400000003    0.3658841100000000 S0.40-
   0.8898872300000000    0.5427268599999997    0.6341158900000000 S0.40-
   0.8898872300000000    0.5427268599999997    0.8658841100000000 S0.40-
   0.3898872300000000    0.9572731400000003    0.1341158900000000 S0.40-
   0.6101127700000000    0.0427268599999998    0.6341158900000000 S0.40-
   0.1101127700000000    0.4572731400000002    0.3658841100000000 S0.40-
   0.2713596700000000    0.3579027100000001    0.2500000000000000 S0.40-
   0.7713596700000001    0.1420972899999999    0.7500000000000000 S0.40-
   0.2286403300000000    0.8579027100000001    0.2500000000000000 S0.40-
   0.7286403299999999    0.6420972899999999    0.7500000000000000 S0.40-
   0.8358092300000000    0.2967324600000001    0.3973276100000002 S0.40-
   0.3358092300000000    0.2032675399999999    0.6026723899999997 S0.40-
   0.6641907700000000    0.7967324600000001    0.1026723899999998 S0.40-
   0.1641907700000000    0.7032675399999999    0.8973276100000003 S0.40-
   0.1641907700000000    0.7032675399999999    0.6026723899999997 S0.40-
   0.6641907700000000    0.7967324600000001    0.3973276100000002 S0.40-
   0.3358092300000000    0.2032675399999999    0.8973276100000003 S0.40-
   0.8358092300000000    0.2967324600000001    0.1026723899999998 S0.40-
