JVASP-12818_Na5InS4 NEB_v2 image 08     
   1.0000000000000000     
     6.8330688911791304    0.0000000000000000   -0.1272470229470229
    -0.0000000000000010   17.6718505513838551    0.0000000000000010
    -0.0048172062806638    0.0000000000000000    7.8804846921668430
   Na   In   S 
    19     4    16
Direct
  0.4166082079870677  0.3439665411681716  0.8050775934993126
  0.3350575167272183  0.0130163087863195  0.3349104475352718
  0.3582195273749207  0.2410561696535680  0.3444745659815922
  0.6507100657494647  0.4875621960504475  0.6723972509227636
  0.9402868021217472  0.1400570931405127  0.5331284215268184
  0.0128060751272301  0.3678799312022036  0.4940493097194647
  0.6652980591328159  0.1257349441054600  0.1552875481494667
  0.9961994799028702  0.0028728621400376  0.9949780674827764
  0.9937543322883684  0.2496713924821208  0.9783750915419205
  0.6537125896745053  0.7614449784461073  0.6635699087750950
  0.3426483997318854  0.5094270793530029  0.3395522135450406
  0.3456079750834107  0.7387423752205748  0.3344639556119446
  0.6538672064849678  0.9892167357556758  0.6640444952360340
  0.9685943017510468  0.6233417279168094  0.5301491155859495
  0.0295366277774605  0.8759096824998238  0.4717519724410408
  0.6735944895250441  0.6218806279891993  0.1564355865661611
  0.3319058247494908  0.8757482024538845  0.8435042931145844
  0.0325370240447995  0.4910687152897069  0.9979508088215425
  0.9985228379679043  0.7498660684569529  0.0005336175606629
  0.6570394563410034  0.3769399392632380  0.1753855032365976
  0.3519778538740113  0.1269570528972892  0.8150566214973693
  0.6455872982110691  0.8757544265734154  0.1800586671218412
  0.3517339276756886  0.6256049370421408  0.8204186977154180
  0.7756631156173555  0.3762762190323343  0.8806479083609702
  0.2396243213181748  0.1274340278690147  0.1164790817858119
  0.2292020783590090  0.0070354169332774  0.6703937724986417
  0.7710288665180300  0.2575845905852816  0.3201153808193240
  0.7720001396880249  0.4928870870422699  0.3387696927914305
  0.2165904665054725  0.2409794746656502  0.6659647510124529
  0.7185230451768305  0.1237240533352235  0.8198074975632323
  0.2861085877748764  0.3753403426210369  0.1806570721249727
  0.7603650981331569  0.8750556514971137  0.8806658142664716
  0.2398145620261829  0.6245328523700806  0.1201815670729189
  0.2348046112629802  0.5068028007851382  0.6730279950483080
  0.7673772059818944  0.7571608528303102  0.3288616992879767
  0.7651283440203756  0.9935361446386679  0.3300017958222270
  0.2298705683827222  0.7435739321403148  0.6696043584633102
  0.7216331665920563  0.6260166551439994  0.8170597076940282
  0.2751519582487916  0.8752746149635087  0.1824047619992157

             NaN             NaN             NaN
             NaN             NaN             NaN
             NaN             NaN             NaN
             NaN             NaN             NaN
             NaN             NaN             NaN
             NaN             NaN             NaN
             NaN             NaN             NaN
             NaN             NaN             NaN
             NaN             NaN             NaN
             NaN             NaN             NaN
             NaN             NaN             NaN
             NaN             NaN             NaN
             NaN             NaN             NaN
             NaN             NaN             NaN
             NaN             NaN             NaN
             NaN             NaN             NaN
             NaN             NaN             NaN
             NaN             NaN             NaN
             NaN             NaN             NaN
             NaN             NaN             NaN
             NaN             NaN             NaN
             NaN             NaN             NaN
             NaN             NaN             NaN
             NaN             NaN             NaN
             NaN             NaN             NaN
             NaN             NaN             NaN
             NaN             NaN             NaN
             NaN             NaN             NaN
             NaN             NaN             NaN
             NaN             NaN             NaN
             NaN             NaN             NaN
             NaN             NaN             NaN
             NaN             NaN             NaN
             NaN             NaN             NaN
             NaN             NaN             NaN
             NaN             NaN             NaN
             NaN             NaN             NaN
             NaN             NaN             NaN
             NaN             NaN             NaN
