JVASP-12818_Na5InS4 NEB_v2 image 08
  1.0
      6.8330688911791304      0.0000000000000000     -0.1272470229470229
     -0.0000000000000010     17.6718505513838551      0.0000000000000010
     -0.0048172062806638      0.0000000000000000      7.8804846921668430
  Na  In  S
  19  4  16
Direct
  0.4166082079870690  0.3439665411681734  0.8050775934993112
  0.3350575167272186  0.0130163087863223  0.3349104475352747
  0.3582195273749242  0.2410561696535649  0.3444745659815954
  0.6507100657494618  0.4875621960504491  0.6723972509227649
  0.9402868021217464  0.1400570931405140  0.5331284215268181
  0.0128060751272285  0.3678799312022067  0.4940493097194673
  0.6652980591328127  0.1257349441054633  0.1552875481494668
  0.9961994799028722  0.0028728621400393  0.9949780674827736
  0.9937543322883695  0.2496713924821181  0.9783750915419187
  0.6537125896745053  0.7614449784461083  0.6635699087750977
  0.3426483997318848  0.5094270793530045  0.3395522135450441
  0.3456079750834138  0.7387423752205774  0.3344639556119447
  0.6538672064849658  0.9892167357556778  0.6640444952360333
  0.9685943017510483  0.6233417279168120  0.5301491155859470
  0.0295366277774631  0.8759096824998229  0.4717519724410406
  0.6735944895250406  0.6218806279891984  0.1564355865661635
  0.3319058247494898  0.8757482024538827  0.8435042931145876
  0.0325370240448025  0.4910687152897094  0.9979508088215432
  0.9985228379679016  0.7498660684569513  0.0005336175606635
  0.6570394563410024  0.3769399392632346  0.1753855032365982
  0.3519778538740146  0.1269570528972888  0.8150566214973728
  0.6455872982110690  0.8757544265734174  0.1800586671218437
  0.3517339276756868  0.6256049370421392  0.8204186977154202
  0.7756631156173573  0.3762762190323354  0.8806479083609690
  0.2396243213181724  0.1274340278690112  0.1164790817858132
  0.2292020783590096  0.0070354169332785  0.6703937724986446
  0.7710288665180322  0.2575845905852832  0.3201153808193257
  0.7720001396880279  0.4928870870422680  0.3387696927914337
  0.2165904665054691  0.2409794746656501  0.6659647510124562
  0.7185230451768280  0.1237240533352204  0.8198074975632348
  0.2861085877748770  0.3753403426210398  0.1806570721249726
  0.7603650981331554  0.8750556514971120  0.8806658142664724
  0.2398145620261840  0.6245328523700839  0.1201815670729210
  0.2348046112629819  0.5068028007851372  0.6730279950483080
  0.7673772059818973  0.7571608528303067  0.3288616992879767
  0.7651283440203733  0.9935361446386671  0.3300017958222263
  0.2298705683827240  0.7435739321403154  0.6696043584633127
  0.7216331665920572  0.6260166551440025  0.8170597076940297
  0.2751519582487902  0.8752746149635077  0.1824047619992171
