JVASP-12818_Na5InS4 NEB_v2 image 03     
   1.0000000000000000     
     6.8330688911791304    0.0000000000000000   -0.1272470229470229
    -0.0000000000000010   17.6718505513838551    0.0000000000000010
    -0.0048172062806638    0.0000000000000000    7.8804846921668430
   Na   In   S 
    19     4    16
Direct
  0.5503995849600969  0.2963751333266558  0.7328553682545262
  0.3403216542839758  0.0128367918765946  0.3317887613267487
  0.3507809718556345  0.2387471022824599  0.3407150470970208
  0.6378211344738887  0.4841490197408405  0.6832753305777999
  0.9504164246072406  0.1324986415479756  0.5296769703000948
  0.0305008336484178  0.3723739318103370  0.4976813219965166
  0.6764842452593740  0.1299721484689798  0.1517456295475128
  0.9938122007626831  0.0008672814634565  0.9970175226092479
  0.0416299071033635  0.2614130185145882  0.9836670197458517
  0.6517116066059856  0.7620945605258527  0.6609942944673648
  0.3444808705241016  0.5115367984633679  0.3389104380376153
  0.3442462933946544  0.7377144419777721  0.3318922428242743
  0.6521184389646422  0.9881576453353986  0.6612020881100307
  0.9608173766325123  0.6226854143015501  0.5284603438876516
  0.0297295910034308  0.8752646655437815  0.4699158240983152
  0.6796014170671114  0.6190996105919311  0.1521612620889883
  0.3309694087036803  0.8753065638451218  0.8431178510430613
  0.0562202052972012  0.4851170722687073  0.9907242436215924
  0.9950075807541054  0.7501511959368017  0.9989236854169548
  0.6549056414047953  0.3758052916260866  0.1792035500221729
  0.3461646545433226  0.1230958620906080  0.8141873982678476
  0.6438641925486266  0.8752016183159554  0.1790423931889720
  0.3464641869297935  0.6277080130003938  0.8163457315105589
  0.7846994670890197  0.3754379471012399  0.8889731970854626
  0.2360960733836563  0.1262279806332600  0.1150765660575814
  0.2254072703435455  0.0047219539074703  0.6665434126096912
  0.7647871685948218  0.2585328534501556  0.3384321770430674
  0.7644395398786301  0.4917381602744086  0.3458347233221630
  0.2218768224731491  0.2389879220578663  0.6643154695060147
  0.7141849506024016  0.1235079302980893  0.8146144483655746
  0.2851872564346110  0.3751536176740942  0.1885741813551363
  0.7578888400949921  0.8750243566287992  0.8796330722933803
  0.2359444167916820  0.6245633768038843  0.1163786789400802
  0.2284656820970383  0.5102997517479437  0.6668889648658336
  0.7649324081333901  0.7563965785129909  0.3263940440722095
  0.7639885076665323  0.9937667038281646  0.3267960328819655
  0.2258954853644823  0.7455427866080555  0.6663981225383182
  0.7154535184330726  0.6264285775526304  0.8133867911993988
  0.2737579077670631  0.8749731941932026  0.1813276508898625

             NaN             NaN             NaN
             NaN             NaN             NaN
             NaN             NaN             NaN
             NaN             NaN             NaN
             NaN             NaN             NaN
             NaN             NaN             NaN
             NaN             NaN             NaN
             NaN             NaN             NaN
             NaN             NaN             NaN
             NaN             NaN             NaN
             NaN             NaN             NaN
             NaN             NaN             NaN
             NaN             NaN             NaN
             NaN             NaN             NaN
             NaN             NaN             NaN
             NaN             NaN             NaN
             NaN             NaN             NaN
             NaN             NaN             NaN
             NaN             NaN             NaN
             NaN             NaN             NaN
             NaN             NaN             NaN
             NaN             NaN             NaN
             NaN             NaN             NaN
             NaN             NaN             NaN
             NaN             NaN             NaN
             NaN             NaN             NaN
             NaN             NaN             NaN
             NaN             NaN             NaN
             NaN             NaN             NaN
             NaN             NaN             NaN
             NaN             NaN             NaN
             NaN             NaN             NaN
             NaN             NaN             NaN
             NaN             NaN             NaN
             NaN             NaN             NaN
             NaN             NaN             NaN
             NaN             NaN             NaN
             NaN             NaN             NaN
             NaN             NaN             NaN
