JVASP-12818_Na5InS4 NEB_v2 image 03
  1.0
      6.8330688911791304      0.0000000000000000     -0.1272470229470229
     -0.0000000000000010     17.6718505513838551      0.0000000000000010
     -0.0048172062806638      0.0000000000000000      7.8804846921668430
  Na  In  S
  19  4  16
Direct
  0.5503995849600987  0.2963751333266528  0.7328553682545281
  0.3403216542839788  0.0128367918765952  0.3317887613267480
  0.3507809718556312  0.2387471022824632  0.3407150470970208
  0.6378211344738915  0.4841490197408433  0.6832753305778002
  0.9504164246072371  0.1324986415479773  0.5296769703000973
  0.0305008336484176  0.3723739318103370  0.4976813219965199
  0.6764842452593739  0.1299721484689780  0.1517456295475142
  0.9938122007626796  0.0008672814634594  0.9970175226092507
  0.0416299071033628  0.2614130185145872  0.9836670197458487
  0.6517116066059825  0.7620945605258502  0.6609942944673627
  0.3444808705241007  0.5115367984633653  0.3389104380376157
  0.3442462933946542  0.7377144419777727  0.3318922428242727
  0.6521184389646401  0.9881576453353954  0.6612020881100285
  0.9608173766325110  0.6226854143015480  0.5284603438876546
  0.0297295910034337  0.8752646655437806  0.4699158240983144
  0.6796014170671134  0.6190996105919346  0.1521612620889916
  0.3309694087036797  0.8753065638451213  0.8431178510430619
  0.0562202052972034  0.4851170722687095  0.9907242436215911
  0.9950075807541031  0.7501511959368008  0.9989236854169538
  0.6549056414047969  0.3758052916260867  0.1792035500221715
  0.3461646545433208  0.1230958620906084  0.8141873982678449
  0.6438641925486255  0.8752016183159566  0.1790423931889726
  0.3464641869297901  0.6277080130003911  0.8163457315105559
  0.7846994670890193  0.3754379471012385  0.8889731970854611
  0.2360960733836586  0.1262279806332623  0.1150765660575806
  0.2254072703435455  0.0047219539074668  0.6665434126096917
  0.7647871685948247  0.2585328534501529  0.3384321770430703
  0.7644395398786317  0.4917381602744069  0.3458347233221615
  0.2218768224731519  0.2389879220578683  0.6643154695060129
  0.7141849506024014  0.1235079302980892  0.8146144483655717
  0.2851872564346081  0.3751536176740947  0.1885741813551360
  0.7578888400949938  0.8750243566287971  0.8796330722933826
  0.2359444167916837  0.6245633768038846  0.1163786789400784
  0.2284656820970416  0.5102997517479453  0.6668889648658303
  0.7649324081333918  0.7563965785129921  0.3263940440722074
  0.7639885076665356  0.9937667038281611  0.3267960328819632
  0.2258954853644839  0.7455427866080523  0.6663981225383171
  0.7154535184330709  0.6264285775526317  0.8133867911993959
  0.2737579077670637  0.8749731941932027  0.1813276508898655
