                                        
   1.0000000000000000     
     8.1917830500169675    0.0000000000000000   -0.0073141368082535
     0.0000000000000000   12.3489792033044683    0.0000000000000000
    -3.0024430513637608    0.0000000000000000   12.6622984923324040
   Na   Sb   S    O    H 
    12     4    16    32    64
Direct
  0.5000000000000000 -0.0000000000000000  0.5000000000000000
  0.5000000000000000  0.5000000000000000 -0.0000000000000000
  0.0000000000000000 -0.0000000000000000 -0.0000000000000000
  0.0000000000000000  0.5000000000000000  0.5000000000000000
  0.1686054408817686  0.5584782805019763  0.0849569255525569
  0.8313945591182313  0.4415217194980237  0.9150430744474430
  0.8313945591182313  0.0584782805019763  0.4150430744474431
  0.1686054408817686  0.9415217194980237  0.5849569255525570
  0.6647829693730439  0.0508622442392127  0.0873114078800283
  0.3352170306269561  0.9491377557607873  0.9126885921199717
  0.3352170306269561  0.5508622442392127  0.4126885921199716
  0.6647829693730439  0.4491377557607873  0.5873114078800283
  0.2894239585329553  0.1677781777813646  0.2507816620568147
  0.7105760414670446  0.8322218222186354  0.7492183379431853
  0.7105760414670446  0.6677781777813646  0.2492183379431853
  0.2894239585329553  0.3322218222186354  0.7507816620568147
  0.2039905329567431  0.9909311696653279  0.2102042623540449
  0.7960094670432640  0.0090688303346722  0.7897957376459551
  0.7960094670432640  0.4909311696653278  0.2897957376459551
  0.2039905329567431  0.5090688303346721  0.7102042623540449
  0.4056766063917203  0.1941947716611502  0.4254494864392399
  0.5943233936082797  0.8058052283388498  0.5745505135607530
  0.5943233936082797  0.6941947716611502  0.0745505135607530
  0.4056766063917203  0.3058052283388498  0.9254494864392470
  0.4794969623422656  0.2139927717651159  0.1528885773639811
  0.5205030376577344  0.7860072282348842  0.8471114226360188
  0.5205030376577344  0.7139927717651158  0.3471114226360189
  0.4794969623422656  0.2860072282348841  0.6528885773639812
  0.0609234245590880  0.2821123446344346  0.2152280199968581
  0.9390765754409121  0.7178876553655654  0.7847719800031419
  0.9390765754409121  0.7821123446344346  0.2847719800031420
  0.0609234245590880  0.2178876553655654  0.7152280199968581
  0.0948181996562162  0.3871351333432499  0.0016227503393730
  0.9051818003437838  0.6128648666567500  0.9983772496606269
  0.9051818003437838  0.8871351333432500  0.4983772496606270
  0.0948181996562162  0.1128648666567501  0.5016227503393731
  0.1483587133461976  0.5222246241112788  0.2547270868223891
  0.8516412866538023  0.4777753758887212  0.7452729131776108
  0.8516412866538023  0.0222246241112788  0.2452729131776109
  0.1483587133461976  0.9777753758887212  0.7547270868223892
  0.1505511745892785  0.6574281253930297  0.4712673276019015
  0.8494488254107214  0.3425718746069703  0.5287326723980984
  0.8494488254107214  0.1574281253930298  0.0287326723980984
  0.1505511745892785  0.8425718746069703  0.9712673276019016
  0.2019553773975657  0.3947520162385614  0.4657445240665815
  0.7980446226024343  0.6052479837614386  0.5342554759334185
  0.7980446226024343  0.8947520162385614  0.0342554759334185
  0.2019553773975657  0.1052479837614386  0.9657445240665815
  0.2071660081553565  0.7347472252437369  0.1519784589466560
  0.7928339918446435  0.2652527747562632  0.8480215410533511
  0.7928339918446435  0.2347472252437369  0.3480215410533440
  0.2071660081553565  0.7652527747562631  0.6519784589466489
  0.4120494230032475  0.4571351815455112  0.1524945090135585
  0.5879505769967526  0.5428648184544888  0.8475054909864415
  0.5879505769967526  0.9571351815455112  0.3475054909864415
  0.4120494230032475  0.0428648184544887  0.6524945090135585
  0.5292741629804132  0.4254300922501437  0.4074212522843928
  0.4707258370195868  0.5745699077498563  0.5925787477156073
  0.4707258370195868  0.9254300922501437  0.0925787477156072
  0.5292741629804132  0.0745699077498563  0.9074212522843927
  0.7447314270133685  0.3994135554406601  0.0652778896869217
  0.2552685729866315  0.6005864445593400  0.9347221103130783
  0.2552685729866315  0.8994135554406600  0.4347221103130783
  0.7447314270133685  0.1005864445593399  0.5652778896869217
  0.0357434430211941  0.5264793139620298  0.2667680270410702
  0.9642565569788060  0.4735206860379701  0.7332319729589298
  0.9642565569788060  0.0264793139620299  0.2332319729589298
  0.0357434430211941  0.9735206860379702  0.7667680270410702
  0.0744851035441291  0.7008807876990375  0.4187354452793958
  0.9255148964558708  0.2991192123009626  0.5812645547206042
  0.9255148964558708  0.2008807876990374  0.0812645547206042
  0.0744851035441291  0.7991192123009625  0.9187354452793958
  0.0893251655041581  0.3446428502893437  0.0634907815087634
  0.9106748344958419  0.6553571497106564  0.9365092184912366
  0.9106748344958419  0.8446428502893436  0.4365092184912437
  0.0893251655041581  0.1553571497106563  0.5634907815087634
  0.1181201482080973  0.7429453633490972  0.1896193935829572
  0.8818798517919028  0.2570546366509028  0.8103806064170428
  0.8818798517919028  0.2429453633490972  0.3103806064170428
  0.1181201482080973  0.7570546366509028  0.6896193935829572
  0.1597134204254582  0.4447423951395151  0.2452299699080660
  0.8402865795745419  0.5552576048604850  0.7547700300919340
  0.8402865795745419  0.9447423951395150  0.2547700300919340
  0.1597134204254582  0.0552576048604850  0.7452299699080660
  0.1874599645963093  0.1433254015406062  0.4757213665700535
  0.8125400354036907  0.8566745984593939  0.5242786334299464
  0.8125400354036907  0.6433254015406061  0.0242786334299394
  0.1874599645963093  0.3566745984593938  0.9757213665700536
  0.1709138394631485  0.8026991941780873  0.0379526678615500
  0.8290861605368586  0.1973008058219055  0.9620473321384501
  0.8290861605368586  0.3026991941780945  0.4620473321384500
  0.1709138394631485  0.6973008058219127  0.5379526678615499
  0.1835449837335734  0.3442799859130611  0.4078301683606281
  0.8164550162664266  0.6557200140869389  0.5921698316393719
  0.8164550162664266  0.8442799859130611  0.0921698316393718
  0.1835449837335734  0.1557200140869389  0.9078301683606281
  0.2880121160581016  0.1401914157420656  0.0194780953455826
  0.7119878839418984  0.8598085842579344  0.9805219046544174
  0.7119878839418984  0.6401914157420656  0.4805219046544174
  0.2880121160581016  0.3598085842579344  0.5194780953455826
  0.4155361988243790  0.3780766293130435  0.1491750861146743
  0.5844638011756211  0.6219233706869565  0.8508249138853328
  0.5844638011756211  0.8780766293130435  0.3508249138853257
  0.4155361988243790  0.1219233706869565  0.6491750861146672
  0.5062442929505931  0.4727589915497763  0.2103270424557218
  0.4937557070494068  0.5272410084502237  0.7896729575442781
  0.4937557070494068  0.9727589915497763  0.2896729575442781
  0.5062442929505931  0.0272410084502237  0.7103270424557219
  0.4993889552420558  0.3488929951578901  0.4040599402259989
  0.5006110447579442  0.6511070048421099  0.5959400597740010
  0.5006110447579442  0.8488929951578901  0.0959400597740011
  0.4993889552420558  0.1511070048421099  0.9040599402259990
  0.6197922203946737  0.4342503608989446  0.3715901164405118
  0.3802077796053263  0.5657496391010555  0.6284098835594881
  0.3802077796053263  0.9342503608989445  0.1284098835594882
  0.6197922203946737  0.0657496391010554  0.8715901164405119
  0.6898171308695291  0.2334655341646639  0.2927127408539621
  0.3101828691304709  0.7665344658353361  0.7072872591460378
  0.3101828691304709  0.7334655341646639  0.2072872591460379
  0.6898171308695291  0.2665344658353361  0.7927127408539622
  0.7113920533546775  0.3253325589172207  0.0679134845441856
  0.2886079466453226  0.6746674410827793  0.9320865154558144
  0.2886079466453226  0.8253325589172207  0.4320865154558144
  0.7113920533546775  0.1746674410827794  0.5679134845441856
  0.7748502881433340  0.4240233932403540  0.1385923240750051
  0.2251497118566660  0.5759766067596460  0.8614076759249949
  0.2251497118566660  0.9240233932403540  0.3614076759249950
  0.7748502881433340  0.0759766067596460  0.6385923240750051

  0.00000000E+00  0.00000000E+00  0.00000000E+00
  0.00000000E+00  0.00000000E+00  0.00000000E+00
  0.00000000E+00  0.00000000E+00  0.00000000E+00
  0.00000000E+00  0.00000000E+00  0.00000000E+00
  0.00000000E+00  0.00000000E+00  0.00000000E+00
  0.00000000E+00  0.00000000E+00  0.00000000E+00
  0.00000000E+00  0.00000000E+00  0.00000000E+00
  0.00000000E+00  0.00000000E+00  0.00000000E+00
  0.00000000E+00  0.00000000E+00  0.00000000E+00
  0.00000000E+00  0.00000000E+00  0.00000000E+00
  0.00000000E+00  0.00000000E+00  0.00000000E+00
  0.00000000E+00  0.00000000E+00  0.00000000E+00
  0.00000000E+00  0.00000000E+00  0.00000000E+00
  0.00000000E+00  0.00000000E+00  0.00000000E+00
  0.00000000E+00  0.00000000E+00  0.00000000E+00
  0.00000000E+00  0.00000000E+00  0.00000000E+00
  0.00000000E+00  0.00000000E+00  0.00000000E+00
  0.00000000E+00  0.00000000E+00  0.00000000E+00
  0.00000000E+00  0.00000000E+00  0.00000000E+00
  0.00000000E+00  0.00000000E+00  0.00000000E+00
  0.00000000E+00  0.00000000E+00  0.00000000E+00
  0.00000000E+00  0.00000000E+00  0.00000000E+00
  0.00000000E+00  0.00000000E+00  0.00000000E+00
  0.00000000E+00  0.00000000E+00  0.00000000E+00
  0.00000000E+00  0.00000000E+00  0.00000000E+00
  0.00000000E+00  0.00000000E+00  0.00000000E+00
  0.00000000E+00  0.00000000E+00  0.00000000E+00
  0.00000000E+00  0.00000000E+00  0.00000000E+00
  0.00000000E+00  0.00000000E+00  0.00000000E+00
  0.00000000E+00  0.00000000E+00  0.00000000E+00
  0.00000000E+00  0.00000000E+00  0.00000000E+00
  0.00000000E+00  0.00000000E+00  0.00000000E+00
  0.00000000E+00  0.00000000E+00  0.00000000E+00
  0.00000000E+00  0.00000000E+00  0.00000000E+00
  0.00000000E+00  0.00000000E+00  0.00000000E+00
  0.00000000E+00  0.00000000E+00  0.00000000E+00
  0.00000000E+00  0.00000000E+00  0.00000000E+00
  0.00000000E+00  0.00000000E+00  0.00000000E+00
  0.00000000E+00  0.00000000E+00  0.00000000E+00
  0.00000000E+00  0.00000000E+00  0.00000000E+00
  0.00000000E+00  0.00000000E+00  0.00000000E+00
  0.00000000E+00  0.00000000E+00  0.00000000E+00
  0.00000000E+00  0.00000000E+00  0.00000000E+00
  0.00000000E+00  0.00000000E+00  0.00000000E+00
  0.00000000E+00  0.00000000E+00  0.00000000E+00
  0.00000000E+00  0.00000000E+00  0.00000000E+00
  0.00000000E+00  0.00000000E+00  0.00000000E+00
  0.00000000E+00  0.00000000E+00  0.00000000E+00
  0.00000000E+00  0.00000000E+00  0.00000000E+00
  0.00000000E+00  0.00000000E+00  0.00000000E+00
  0.00000000E+00  0.00000000E+00  0.00000000E+00
  0.00000000E+00  0.00000000E+00  0.00000000E+00
  0.00000000E+00  0.00000000E+00  0.00000000E+00
  0.00000000E+00  0.00000000E+00  0.00000000E+00
  0.00000000E+00  0.00000000E+00  0.00000000E+00
  0.00000000E+00  0.00000000E+00  0.00000000E+00
  0.00000000E+00  0.00000000E+00  0.00000000E+00
  0.00000000E+00  0.00000000E+00  0.00000000E+00
  0.00000000E+00  0.00000000E+00  0.00000000E+00
  0.00000000E+00  0.00000000E+00  0.00000000E+00
  0.00000000E+00  0.00000000E+00  0.00000000E+00
  0.00000000E+00  0.00000000E+00  0.00000000E+00
  0.00000000E+00  0.00000000E+00  0.00000000E+00
  0.00000000E+00  0.00000000E+00  0.00000000E+00
  0.00000000E+00  0.00000000E+00  0.00000000E+00
  0.00000000E+00  0.00000000E+00  0.00000000E+00
  0.00000000E+00  0.00000000E+00  0.00000000E+00
  0.00000000E+00  0.00000000E+00  0.00000000E+00
  0.00000000E+00  0.00000000E+00  0.00000000E+00
  0.00000000E+00  0.00000000E+00  0.00000000E+00
  0.00000000E+00  0.00000000E+00  0.00000000E+00
  0.00000000E+00  0.00000000E+00  0.00000000E+00
  0.00000000E+00  0.00000000E+00  0.00000000E+00
  0.00000000E+00  0.00000000E+00  0.00000000E+00
  0.00000000E+00  0.00000000E+00  0.00000000E+00
  0.00000000E+00  0.00000000E+00  0.00000000E+00
  0.00000000E+00  0.00000000E+00  0.00000000E+00
  0.00000000E+00  0.00000000E+00  0.00000000E+00
  0.00000000E+00  0.00000000E+00  0.00000000E+00
  0.00000000E+00  0.00000000E+00  0.00000000E+00
  0.00000000E+00  0.00000000E+00  0.00000000E+00
  0.00000000E+00  0.00000000E+00  0.00000000E+00
  0.00000000E+00  0.00000000E+00  0.00000000E+00
  0.00000000E+00  0.00000000E+00  0.00000000E+00
  0.00000000E+00  0.00000000E+00  0.00000000E+00
  0.00000000E+00  0.00000000E+00  0.00000000E+00
  0.00000000E+00  0.00000000E+00  0.00000000E+00
  0.00000000E+00  0.00000000E+00  0.00000000E+00
  0.00000000E+00  0.00000000E+00  0.00000000E+00
  0.00000000E+00  0.00000000E+00  0.00000000E+00
  0.00000000E+00  0.00000000E+00  0.00000000E+00
  0.00000000E+00  0.00000000E+00  0.00000000E+00
  0.00000000E+00  0.00000000E+00  0.00000000E+00
  0.00000000E+00  0.00000000E+00  0.00000000E+00
  0.00000000E+00  0.00000000E+00  0.00000000E+00
  0.00000000E+00  0.00000000E+00  0.00000000E+00
  0.00000000E+00  0.00000000E+00  0.00000000E+00
  0.00000000E+00  0.00000000E+00  0.00000000E+00
  0.00000000E+00  0.00000000E+00  0.00000000E+00
  0.00000000E+00  0.00000000E+00  0.00000000E+00
  0.00000000E+00  0.00000000E+00  0.00000000E+00
  0.00000000E+00  0.00000000E+00  0.00000000E+00
  0.00000000E+00  0.00000000E+00  0.00000000E+00
  0.00000000E+00  0.00000000E+00  0.00000000E+00
  0.00000000E+00  0.00000000E+00  0.00000000E+00
  0.00000000E+00  0.00000000E+00  0.00000000E+00
  0.00000000E+00  0.00000000E+00  0.00000000E+00
  0.00000000E+00  0.00000000E+00  0.00000000E+00
  0.00000000E+00  0.00000000E+00  0.00000000E+00
  0.00000000E+00  0.00000000E+00  0.00000000E+00
  0.00000000E+00  0.00000000E+00  0.00000000E+00
  0.00000000E+00  0.00000000E+00  0.00000000E+00
  0.00000000E+00  0.00000000E+00  0.00000000E+00
  0.00000000E+00  0.00000000E+00  0.00000000E+00
  0.00000000E+00  0.00000000E+00  0.00000000E+00
  0.00000000E+00  0.00000000E+00  0.00000000E+00
  0.00000000E+00  0.00000000E+00  0.00000000E+00
  0.00000000E+00  0.00000000E+00  0.00000000E+00
  0.00000000E+00  0.00000000E+00  0.00000000E+00
  0.00000000E+00  0.00000000E+00  0.00000000E+00
  0.00000000E+00  0.00000000E+00  0.00000000E+00
  0.00000000E+00  0.00000000E+00  0.00000000E+00
  0.00000000E+00  0.00000000E+00  0.00000000E+00
  0.00000000E+00  0.00000000E+00  0.00000000E+00
  0.00000000E+00  0.00000000E+00  0.00000000E+00
  0.00000000E+00  0.00000000E+00  0.00000000E+00
  0.00000000E+00  0.00000000E+00  0.00000000E+00
  0.00000000E+00  0.00000000E+00  0.00000000E+00
