                                        
   1.0000000000000000     
     8.1924983817118395    0.0000000000000000   -0.0072599781378546
     0.0000000000000000   12.3485716768238660    0.0000000000000000
    -3.0026213949570599    0.0000000000000000   12.6623391987624707
   Na   Sb   S    O    H 
    12     4    16    32    64
Direct
  0.5000000000000000 -0.0000000000000000  0.5000000000000000
  0.5000000000000000  0.5000000000000000 -0.0000000000000000
 -0.0000000000000000 -0.0000000000000000 -0.0000000000000000
 -0.0000000000000000  0.5000000000000000  0.5000000000000000
  0.1686062424860843  0.5584786226326049  0.0849568795663038
  0.8313937575139158  0.4415213773673951  0.9150431204336962
  0.8313937575139158  0.0584786226326049  0.4150431204336962
  0.1686062424860843  0.9415213773673951  0.5849568795663038
  0.6647835320887168  0.0508627274072215  0.0873117149296827
  0.3352164679112832  0.9491372725927786  0.9126882850703173
  0.3352164679112832  0.5508627274072214  0.4126882850703172
  0.6647835320887168  0.4491372725927785  0.5873117149296827
  0.2894217123233002  0.1677761475426307  0.2507793868463606
  0.7105782876766998  0.8322238524573693  0.7492206131536394
  0.7105782876766998  0.6677761475426307  0.2492206131536394
  0.2894217123233002  0.3322238524573693  0.7507793868463606
  0.2039888382009670  0.9909307279880135  0.2102037744834979
  0.7960111617990401  0.0090692720119865  0.7897962255165021
  0.7960111617990401  0.4909307279880135  0.2897962255165020
  0.2039888382009670  0.5090692720119865  0.7102037744834979
  0.4056859306906386  0.1941990781497878  0.4254555615083985
  0.5943140693093614  0.8058009218502122  0.5745444384915945
  0.5943140693093614  0.6941990781497878  0.0745444384915945
  0.4056859306906386  0.3058009218502122  0.9254555615084055
  0.4794953165451045  0.2139969061154788  0.1528857186669237
  0.5205046834548955  0.7860030938845213  0.8471142813330763
  0.5205046834548955  0.7139969061154787  0.3471142813330763
  0.4794953165451045  0.2860030938845213  0.6528857186669237
  0.0609197366809914  0.2821114221724982  0.2152273070892136
  0.9390802633190086  0.7178885778275017  0.7847726929107864
  0.9390802633190086  0.7821114221724983  0.2847726929107865
  0.0609197366809914  0.2178885778275018  0.7152273070892136
  0.0948180710900918  0.3871351911230692  0.0016231512572221
  0.9051819289099082  0.6128648088769307  0.9983768487427780
  0.9051819289099082  0.8871351911230693  0.4983768487427779
  0.0948180710900918  0.1128648088769308  0.5016231512572220
  0.1483600197891286  0.5222249133237594  0.2547273210753093
  0.8516399802108714  0.4777750866762405  0.7452726789246907
  0.8516399802108714  0.0222249133237594  0.2452726789246907
  0.1483600197891286  0.9777750866762406  0.7547273210753093
  0.1505509031474808  0.6574275147931097  0.4712678013958734
  0.8494490968525192  0.3425724852068903  0.5287321986041267
  0.8494490968525192  0.1574275147931097  0.0287321986041266
  0.1505509031474808  0.8425724852068903  0.9712678013958733
  0.2019566944231931  0.3947516561549039  0.4657447155080187
  0.7980433055768069  0.6052483438450961  0.5342552844919812
  0.7980433055768069  0.8947516561549039  0.0342552844919813
  0.2019566944231931  0.1052483438450961  0.9657447155080188
  0.2071667690176839  0.7347470389630563  0.1519762476929806
  0.7928332309823161  0.2652529610369437  0.8480237523070265
  0.7928332309823161  0.2347470389630563  0.3480237523070194
  0.2071667690176839  0.7652529610369437  0.6519762476929735
  0.4120500612784032  0.4571344901017427  0.1524950255718951
  0.5879499387215968  0.5428655098982573  0.8475049744281048
  0.5879499387215968  0.9571344901017427  0.3475049744281049
  0.4120500612784032  0.0428655098982573  0.6524950255718952
  0.5292738019970851  0.4254297881806954  0.4074210105861927
  0.4707261980029149  0.5745702118193046  0.5925789894138074
  0.4707261980029149  0.9254297881806954  0.0925789894138073
  0.5292738019970851  0.0745702118193046  0.9074210105861926
  0.7447305913247482  0.3994139262916315  0.0652775850691429
  0.2552694086752519  0.6005860737083685  0.9347224149308572
  0.2552694086752519  0.8994139262916315  0.4347224149308571
  0.7447305913247482  0.1005860737083685  0.5652775850691428
  0.0357422450447150  0.5264790842051867  0.2667680877036015
  0.9642577549552850  0.4735209157948132  0.7332319122963985
  0.9642577549552850  0.0264790842051868  0.2332319122963985
  0.0357422450447150  0.9735209157948133  0.7667680877036015
  0.0744855155536064  0.7008806498720599  0.4187356706566283
  0.9255144844463937  0.2991193501279401  0.5812643293433717
  0.9255144844463937  0.2008806498720599  0.0812643293433717
  0.0744855155536064  0.7991193501279401  0.9187356706566283
  0.0893251821778905  0.3446428115512060  0.0634906676706198
  0.9106748178221095  0.6553571884487940  0.9365093323293803
  0.9106748178221095  0.8446428115512060  0.4365093323293873
  0.0893251821778905  0.1553571884487940  0.5634906676706197
  0.1181208532669288  0.7429455195502490  0.1896199698388671
  0.8818791467330712  0.2570544804497509  0.8103800301611328
  0.8818791467330712  0.2429455195502491  0.3103800301611329
  0.1181208532669288  0.7570544804497510  0.6896199698388672
  0.1597131394669677  0.4447421646858284  0.2452299867063391
  0.8402868605330323  0.5552578353141716  0.7547700132936610
  0.8402868605330323  0.9447421646858284  0.2547700132936609
  0.1597131394669677  0.0552578353141716  0.7452299867063390
  0.1874599279527457  0.1433255683883931  0.4757215251656554
  0.8125400720472542  0.8566744316116069  0.5242784748343446
  0.8125400720472542  0.6433255683883931  0.0242784748343376
  0.1874599279527457  0.3566744316116069  0.9757215251656554
  0.1709138885781555  0.8026990385274837  0.0379525780364666
  0.8290861114218515  0.1973009614725092  0.9620474219635334
  0.8290861114218515  0.3026990385274908  0.4620474219635333
  0.1709138885781555  0.6973009614725163  0.5379525780364666
  0.1835445746118410  0.3442801483548937  0.4078302825996970
  0.8164554253881590  0.6557198516451063  0.5921697174003030
  0.8164554253881590  0.8442801483548937  0.0921697174003030
  0.1835445746118410  0.1557198516451062  0.9078302825996970
  0.2880113308870854  0.1401912749947279  0.0194776865697000
  0.7119886691129147  0.8598087250052722  0.9805223134302999
  0.7119886691129147  0.6401912749947278  0.4805223134303000
  0.2880113308870854  0.3598087250052721  0.5194776865697001
  0.4155360040287693  0.3780772468390051  0.1491750607629106
  0.5844639959712307  0.6219227531609950  0.8508249392370965
  0.5844639959712307  0.8780772468390050  0.3508249392370894
  0.4155360040287693  0.1219227531609950  0.6491750607629035
  0.5062447207746822  0.4727591047482801  0.2103272823760598
  0.4937552792253178  0.5272408952517198  0.7896727176239401
  0.4937552792253178  0.9727591047482802  0.2896727176239401
  0.5062447207746822  0.0272408952517199  0.7103272823760599
  0.4993889683321140  0.3488928196766691  0.4040599973406876
  0.5006110316678860  0.6511071803233308  0.5959400026593124
  0.5006110316678860  0.8488928196766692  0.0959400026593124
  0.4993889683321140  0.1511071803233308  0.9040599973406876
  0.6197929194594086  0.4342502751860903  0.3715900024305042
  0.3802070805405913  0.5657497248139097  0.6284099975694959
  0.3802070805405913  0.9342502751860903  0.1284099975694959
  0.6197929194594086  0.0657497248139097  0.8715900024305041
  0.6898188116421708  0.2334658428804722  0.2927124913311020
  0.3101811883578290  0.7665341571195278  0.7072875086688980
  0.3101811883578290  0.7334658428804722  0.2072875086688980
  0.6898188116421708  0.2665341571195278  0.7927124913311020
  0.7113930222885395  0.3253326786936122  0.0679140342703460
  0.2886069777114604  0.6746673213063878  0.9320859657296540
  0.2886069777114604  0.8253326786936122  0.4320859657296541
  0.7113930222885395  0.1746673213063878  0.5679140342703460
  0.7748499036103100  0.4240229102333781  0.1385921298602980
  0.2251500963896899  0.5759770897666220  0.8614078701397019
  0.2251500963896899  0.9240229102333780  0.3614078701397020
  0.7748499036103100  0.0759770897666219  0.6385921298602981

  0.00000000E+00  0.00000000E+00  0.00000000E+00
  0.00000000E+00  0.00000000E+00  0.00000000E+00
  0.00000000E+00  0.00000000E+00  0.00000000E+00
  0.00000000E+00  0.00000000E+00  0.00000000E+00
  0.00000000E+00  0.00000000E+00  0.00000000E+00
  0.00000000E+00  0.00000000E+00  0.00000000E+00
  0.00000000E+00  0.00000000E+00  0.00000000E+00
  0.00000000E+00  0.00000000E+00  0.00000000E+00
  0.00000000E+00  0.00000000E+00  0.00000000E+00
  0.00000000E+00  0.00000000E+00  0.00000000E+00
  0.00000000E+00  0.00000000E+00  0.00000000E+00
  0.00000000E+00  0.00000000E+00  0.00000000E+00
  0.00000000E+00  0.00000000E+00  0.00000000E+00
  0.00000000E+00  0.00000000E+00  0.00000000E+00
  0.00000000E+00  0.00000000E+00  0.00000000E+00
  0.00000000E+00  0.00000000E+00  0.00000000E+00
  0.00000000E+00  0.00000000E+00  0.00000000E+00
  0.00000000E+00  0.00000000E+00  0.00000000E+00
  0.00000000E+00  0.00000000E+00  0.00000000E+00
  0.00000000E+00  0.00000000E+00  0.00000000E+00
  0.00000000E+00  0.00000000E+00  0.00000000E+00
  0.00000000E+00  0.00000000E+00  0.00000000E+00
  0.00000000E+00  0.00000000E+00  0.00000000E+00
  0.00000000E+00  0.00000000E+00  0.00000000E+00
  0.00000000E+00  0.00000000E+00  0.00000000E+00
  0.00000000E+00  0.00000000E+00  0.00000000E+00
  0.00000000E+00  0.00000000E+00  0.00000000E+00
  0.00000000E+00  0.00000000E+00  0.00000000E+00
  0.00000000E+00  0.00000000E+00  0.00000000E+00
  0.00000000E+00  0.00000000E+00  0.00000000E+00
  0.00000000E+00  0.00000000E+00  0.00000000E+00
  0.00000000E+00  0.00000000E+00  0.00000000E+00
  0.00000000E+00  0.00000000E+00  0.00000000E+00
  0.00000000E+00  0.00000000E+00  0.00000000E+00
  0.00000000E+00  0.00000000E+00  0.00000000E+00
  0.00000000E+00  0.00000000E+00  0.00000000E+00
  0.00000000E+00  0.00000000E+00  0.00000000E+00
  0.00000000E+00  0.00000000E+00  0.00000000E+00
  0.00000000E+00  0.00000000E+00  0.00000000E+00
  0.00000000E+00  0.00000000E+00  0.00000000E+00
  0.00000000E+00  0.00000000E+00  0.00000000E+00
  0.00000000E+00  0.00000000E+00  0.00000000E+00
  0.00000000E+00  0.00000000E+00  0.00000000E+00
  0.00000000E+00  0.00000000E+00  0.00000000E+00
  0.00000000E+00  0.00000000E+00  0.00000000E+00
  0.00000000E+00  0.00000000E+00  0.00000000E+00
  0.00000000E+00  0.00000000E+00  0.00000000E+00
  0.00000000E+00  0.00000000E+00  0.00000000E+00
  0.00000000E+00  0.00000000E+00  0.00000000E+00
  0.00000000E+00  0.00000000E+00  0.00000000E+00
  0.00000000E+00  0.00000000E+00  0.00000000E+00
  0.00000000E+00  0.00000000E+00  0.00000000E+00
  0.00000000E+00  0.00000000E+00  0.00000000E+00
  0.00000000E+00  0.00000000E+00  0.00000000E+00
  0.00000000E+00  0.00000000E+00  0.00000000E+00
  0.00000000E+00  0.00000000E+00  0.00000000E+00
  0.00000000E+00  0.00000000E+00  0.00000000E+00
  0.00000000E+00  0.00000000E+00  0.00000000E+00
  0.00000000E+00  0.00000000E+00  0.00000000E+00
  0.00000000E+00  0.00000000E+00  0.00000000E+00
  0.00000000E+00  0.00000000E+00  0.00000000E+00
  0.00000000E+00  0.00000000E+00  0.00000000E+00
  0.00000000E+00  0.00000000E+00  0.00000000E+00
  0.00000000E+00  0.00000000E+00  0.00000000E+00
  0.00000000E+00  0.00000000E+00  0.00000000E+00
  0.00000000E+00  0.00000000E+00  0.00000000E+00
  0.00000000E+00  0.00000000E+00  0.00000000E+00
  0.00000000E+00  0.00000000E+00  0.00000000E+00
  0.00000000E+00  0.00000000E+00  0.00000000E+00
  0.00000000E+00  0.00000000E+00  0.00000000E+00
  0.00000000E+00  0.00000000E+00  0.00000000E+00
  0.00000000E+00  0.00000000E+00  0.00000000E+00
  0.00000000E+00  0.00000000E+00  0.00000000E+00
  0.00000000E+00  0.00000000E+00  0.00000000E+00
  0.00000000E+00  0.00000000E+00  0.00000000E+00
  0.00000000E+00  0.00000000E+00  0.00000000E+00
  0.00000000E+00  0.00000000E+00  0.00000000E+00
  0.00000000E+00  0.00000000E+00  0.00000000E+00
  0.00000000E+00  0.00000000E+00  0.00000000E+00
  0.00000000E+00  0.00000000E+00  0.00000000E+00
  0.00000000E+00  0.00000000E+00  0.00000000E+00
  0.00000000E+00  0.00000000E+00  0.00000000E+00
  0.00000000E+00  0.00000000E+00  0.00000000E+00
  0.00000000E+00  0.00000000E+00  0.00000000E+00
  0.00000000E+00  0.00000000E+00  0.00000000E+00
  0.00000000E+00  0.00000000E+00  0.00000000E+00
  0.00000000E+00  0.00000000E+00  0.00000000E+00
  0.00000000E+00  0.00000000E+00  0.00000000E+00
  0.00000000E+00  0.00000000E+00  0.00000000E+00
  0.00000000E+00  0.00000000E+00  0.00000000E+00
  0.00000000E+00  0.00000000E+00  0.00000000E+00
  0.00000000E+00  0.00000000E+00  0.00000000E+00
  0.00000000E+00  0.00000000E+00  0.00000000E+00
  0.00000000E+00  0.00000000E+00  0.00000000E+00
  0.00000000E+00  0.00000000E+00  0.00000000E+00
  0.00000000E+00  0.00000000E+00  0.00000000E+00
  0.00000000E+00  0.00000000E+00  0.00000000E+00
  0.00000000E+00  0.00000000E+00  0.00000000E+00
  0.00000000E+00  0.00000000E+00  0.00000000E+00
  0.00000000E+00  0.00000000E+00  0.00000000E+00
  0.00000000E+00  0.00000000E+00  0.00000000E+00
  0.00000000E+00  0.00000000E+00  0.00000000E+00
  0.00000000E+00  0.00000000E+00  0.00000000E+00
  0.00000000E+00  0.00000000E+00  0.00000000E+00
  0.00000000E+00  0.00000000E+00  0.00000000E+00
  0.00000000E+00  0.00000000E+00  0.00000000E+00
  0.00000000E+00  0.00000000E+00  0.00000000E+00
  0.00000000E+00  0.00000000E+00  0.00000000E+00
  0.00000000E+00  0.00000000E+00  0.00000000E+00
  0.00000000E+00  0.00000000E+00  0.00000000E+00
  0.00000000E+00  0.00000000E+00  0.00000000E+00
  0.00000000E+00  0.00000000E+00  0.00000000E+00
  0.00000000E+00  0.00000000E+00  0.00000000E+00
  0.00000000E+00  0.00000000E+00  0.00000000E+00
  0.00000000E+00  0.00000000E+00  0.00000000E+00
  0.00000000E+00  0.00000000E+00  0.00000000E+00
  0.00000000E+00  0.00000000E+00  0.00000000E+00
  0.00000000E+00  0.00000000E+00  0.00000000E+00
  0.00000000E+00  0.00000000E+00  0.00000000E+00
  0.00000000E+00  0.00000000E+00  0.00000000E+00
  0.00000000E+00  0.00000000E+00  0.00000000E+00
  0.00000000E+00  0.00000000E+00  0.00000000E+00
  0.00000000E+00  0.00000000E+00  0.00000000E+00
  0.00000000E+00  0.00000000E+00  0.00000000E+00
  0.00000000E+00  0.00000000E+00  0.00000000E+00
  0.00000000E+00  0.00000000E+00  0.00000000E+00
  0.00000000E+00  0.00000000E+00  0.00000000E+00
  0.00000000E+00  0.00000000E+00  0.00000000E+00
