
1.0
        8.7460002899         0.0000000000         0.0000000000
        0.0000000000        13.1682996750         0.0000000000
       -3.1950095145         0.0000000000        13.5337793727
   Na   Sb    S    O    H
   12    4   16   32   64
Direct
     0.500000000         0.000000000         0.500000000
     0.500000000         0.500000000         0.000000000
     0.000000000         0.000000000         0.000000000
     0.000000000         0.500000000         0.500000000
     0.171000000         0.566000000         0.085000000
     0.829000000         0.434000000         0.915000000
     0.829000000         0.066000000         0.415000000
     0.171000000         0.934000000         0.585000000
     0.657000000         0.046800000         0.084000000
     0.343000000         0.953200000         0.916000000
     0.343000000         0.546800000         0.416000000
     0.657000000         0.453200000         0.584000000
     0.282100000         0.169600000         0.250100000
     0.717900000         0.830400000         0.749900000
     0.717900000         0.669600000         0.249900000
     0.282100000         0.330400000         0.750100000
     0.207000000         0.999600000         0.208700000
     0.793000000         0.000400000         0.791300000
     0.793000000         0.499600000         0.291300000
     0.207000000         0.500400000         0.708700000
     0.404800000         0.188200000         0.424300000
     0.595200000         0.811800000         0.575700000
     0.595200000         0.688200000         0.075700000
     0.404800000         0.311800000         0.924300000
     0.468600000         0.211800000         0.159700000
     0.531400000         0.788200000         0.840300000
     0.531400000         0.711800000         0.340300000
     0.468600000         0.288200000         0.659700000
     0.075000000         0.281100000         0.217800000
     0.925000000         0.718900000         0.782200000
     0.925000000         0.781100000         0.282200000
     0.075000000         0.218900000         0.717800000
     0.091190000         0.389770000         0.000860000
     0.908810000         0.610230000         0.999140000
     0.908810000         0.889770000         0.499140000
     0.091190000         0.110230000         0.500860000
     0.146050000         0.519330000         0.250850000
     0.853950000         0.480670000         0.749150000
     0.853950000         0.019330000         0.249150000
     0.146050000         0.980670000         0.750850000
     0.148880000         0.650190000         0.466270000
     0.851120000         0.349810000         0.533730000
     0.851120000         0.150190000         0.033730000
     0.148880000         0.849810000         0.966270000
     0.195270000         0.396630000         0.459140000
     0.804730000         0.603370000         0.540860000
     0.804730000         0.896630000         0.040860000
     0.195270000         0.103370000         0.959140000
     0.211890000         0.734320000         0.149010000
     0.788110000         0.265680000         0.850990000
     0.788110000         0.234320000         0.350990000
     0.211890000         0.765680000         0.649010000
     0.409000000         0.460340000         0.145360000
     0.591000000         0.539660000         0.854640000
     0.591000000         0.960340000         0.354640000
     0.409000000         0.039660000         0.645360000
     0.530930000         0.426880000         0.410860000
     0.469070000         0.573120000         0.589140000
     0.469070000         0.926880000         0.089140000
     0.530930000         0.073120000         0.910860000
     0.739310000         0.402360000         0.065500000
     0.260690000         0.597640000         0.934500000
     0.260690000         0.902360000         0.434500000
     0.739310000         0.097640000         0.565500000
     0.046740000         0.534860000         0.266990000
     0.953260000         0.465140000         0.733010000
     0.953260000         0.034860000         0.233010000
     0.046740000         0.965140000         0.766990000
     0.075320000         0.690390000         0.418030000
     0.924680000         0.309610000         0.581970000
     0.924680000         0.190390000         0.081970000
     0.075320000         0.809610000         0.918030000
     0.095990000         0.350070000         0.060610000
     0.904010000         0.649930000         0.939390000
     0.904010000         0.850070000         0.439390000
     0.095990000         0.149930000         0.560610000
     0.138070000         0.745340000         0.190420000
     0.861930000         0.254660000         0.809580000
     0.861930000         0.245340000         0.309580000
     0.138070000         0.754660000         0.690420000
     0.146810000         0.445370000         0.251940000
     0.853190000         0.554630000         0.748060000
     0.853190000         0.945370000         0.248060000
     0.146810000         0.054630000         0.751940000
     0.167990000         0.139890000         0.468810000
     0.832010000         0.860110000         0.531190000
     0.832010000         0.639890000         0.031190000
     0.167990000         0.360110000         0.968810000
     0.173910000         0.809380000         0.102660000
     0.826090000         0.190620000         0.897340000
     0.826090000         0.309380000         0.397340000
     0.173910000         0.690620000         0.602660000
     0.176670000         0.347790000         0.405050000
     0.823330000         0.652210000         0.594950000
     0.823330000         0.847790000         0.094950000
     0.176670000         0.152210000         0.905050000
     0.258920000         0.140990000         0.101430000
     0.741080000         0.859010000         0.898570000
     0.741080000         0.640990000         0.398570000
     0.258920000         0.359010000         0.601430000
     0.411150000         0.386390000         0.146210000
     0.588850000         0.613610000         0.853790000
     0.588850000         0.886390000         0.353790000
     0.411150000         0.113610000         0.646210000
     0.502080000         0.479420000         0.194920000
     0.497920000         0.520580000         0.805080000
     0.497920000         0.979420000         0.305080000
     0.502080000         0.020580000         0.694920000
     0.495480000         0.357490000         0.395130000
     0.504520000         0.642510000         0.604870000
     0.504520000         0.857490000         0.104870000
     0.495480000         0.142510000         0.895130000
     0.606490000         0.443080000         0.371920000
     0.393510000         0.556920000         0.628080000
     0.393510000         0.943080000         0.128080000
     0.606490000         0.056920000         0.871920000
     0.686460000         0.232450000         0.304800000
     0.313540000         0.767550000         0.695200000
     0.313540000         0.732450000         0.195200000
     0.686460000         0.267550000         0.804800000
     0.711450000         0.332040000         0.074720000
     0.288550000         0.667960000         0.925280000
     0.288550000         0.832040000         0.425280000
     0.711450000         0.167960000         0.574720000
     0.773520000         0.430110000         0.131950000
     0.226480000         0.569890000         0.868050000
     0.226480000         0.930110000         0.368050000
     0.773520000         0.069890000         0.631950000
