Na5AlS4 bottleneck ep00                 
   1.0000000000000000     
    12.1026382039385112    0.0000000000000000    0.0000000000000007
    -0.0000000000000004    7.0938170788834114    0.0000000000000004
     0.0000000000000000    0.0000000000000000   21.6510149562332330
   Na   Al   S 
    39     8    32
Direct
  0.3474755613295033  0.9088014684098112  0.4987445951603950
  0.6413300244639102  0.4038293871594943 -0.0002664401033097
  0.1660380710530041  0.0852078555408581  0.9918299416997705
  0.1518885644090912  0.4068646049159327  0.4983463253376532
  0.3444868391489466  0.6042882679771581  0.9984603823426317
  0.6521774971680110  0.0909949592883233  0.5012963935745504
  0.8480212381409328  0.5905254845087959  0.5012465656251781
  0.8501895360322335  0.9078454494773864 -0.0022243887055050
  0.2878429962805102  0.5509955099648702  0.3627301246302511
  0.7136191436034928  0.0497343965061156  0.1349648446617983
  0.2138496204565385  0.4482292930834518  0.8653656729941921
  0.2122422891354827  0.0502982366407827  0.3624626030164261
  0.7126163935735086  0.4493945008607104  0.6385283500977195
  0.7875865028027677  0.9476859139633229  0.6378367308668715
  0.7854353679312607  0.5478448580029912  0.1365638543026818
  0.5528393177724645  0.5614593293773594  0.4352213474130830
  0.4473865664367237  0.0611175135430620  0.0679740093027460
  0.9449309026010552  0.4370320936452064  0.9351967991267051
  0.9475509008385632  0.0605357858016438  0.4345292823537577
  0.5407190364183966  0.9429691230975774  0.9335996993973289
  0.4461542742840084  0.4387515327371039  0.5663811861062783
  0.0535601363588052  0.9366080041338849  0.5656226896526546
  0.0487106399533823  0.5563659554363376  0.0656899754897169
  0.5836207922879195  0.3858549753691047  0.2534791996649599
  0.4148643050473331  0.8842410745597772  0.2471493716076230
  0.9206580146429536  0.6121673737174669  0.7531371817240320
  0.9161325931623354  0.8833341900070631  0.2526430660205278
  0.5841816705578751  0.1215808151200852  0.7525830374430555
  0.4013007084135795  0.6506193995834684  0.7533133607690422
  0.0927714723868663  0.1185872234637193  0.7499968991022657
  0.0837696992071144  0.3827400658964820  0.2463510448936426
  0.8377928927464605  0.1018166938631960  0.8299466075185726
  0.1646933527637590  0.6049929394749324  0.6682019011562365
  0.6642674315789222  0.8937938351803912  0.3302894868852069
  0.6657880829604251  0.6068731141158701  0.8314609311383800
  0.8363191082293571  0.3917997964147470  0.3304614261638549
  0.1617260818770351  0.8899024839009840  0.1679588841429376
  0.3343228894683876  0.3921267224089289  0.1687223897846232
  0.3371642707956796  0.1117175268386924  0.6696947444999662
  0.0506145637073497  0.8351084498150265  0.8737957136131269
  0.9598409858243780  0.3308378023475401  0.6256228991969731
  0.4591117271022396  0.1667879296229993  0.3743663870199643
  0.4611401541365183  0.3299635162245688  0.8744422169176163
  0.0410329760199232  0.6661198816148776  0.3739489834237956
  0.9581064094698252  0.1640501642330827  0.1245173004648977
  0.5398608185061748  0.6670059048041667  0.1252725498078756
  0.5400684394912099  0.8330589231204670  0.6260914648948178
  0.3783984569819473  0.2246937449554846  0.9621458969430542
  0.6309508788189796  0.7069833098646110  0.5432192703574683
  0.1306440590139456  0.7909949702848049  0.4573396905296514
  0.1268757080327822  0.7018590852709163  0.9594904061920065
  0.3696724096662030  0.2920318341705090  0.4577643848418210
  0.6270504993342322  0.7906568173655667  0.0408897703637597
  0.8638977061019832  0.2887495811181654  0.0426970683867203
  0.8696709030193734  0.2065787393109884  0.5422814730051827
  0.4478210147709919  0.8488310099126916  0.3769249640696770
  0.5527340930199971  0.3493933739475376  0.1242749992920065
  0.0511930529540211  0.1523811653456418  0.8778508452311578
  0.0528108638072593  0.3481683847178949  0.3765506755774086
  0.4501278154029207  0.6443264837448489  0.8792546252783328
  0.5535771158072200  0.1509579599326165  0.6228933797757811
  0.9471169582911795  0.6490630267567375  0.6229892340815127
  0.9442058058409569  0.8463812228404208  0.1225767844030494
  0.1407587963647085  0.2441347332797441  0.6231619089737972
  0.8672301283127433  0.7428225812363070  0.8734792411339699
  0.3592103049479536  0.7543903064187951  0.1245290325520088
  0.3590004979038587  0.7489881504093716  0.6233628155506216
  0.1388342456952606  0.2507929847572322  0.1223000617172118
  0.8601282467621458  0.7540873660746785  0.3759620562149035
  0.6399011382416998  0.2553820640052752  0.3762156443898419
  0.6413446712119428  0.2377023749397913  0.8745578892427993
  0.6307823329702982  0.7596467817911046  0.2125652680000651
  0.3690804340970466  0.2578017527327858  0.2865385553259830
  0.8716397712708325  0.2402350590215953  0.7134894776324888
  0.8694000917769684  0.2561190643901406  0.2130369244492214
  0.6271371512692788  0.7442095918473790  0.7145233288210131
  0.3691842742148221  0.2563187746240159  0.7863405979262706
  0.1357935191807562  0.7396759154326643  0.7854451503240996
  0.1309887395432661  0.7568229586650818  0.2860969187689709

  0.00000000E+00  0.00000000E+00  0.00000000E+00
  0.00000000E+00  0.00000000E+00  0.00000000E+00
  0.00000000E+00  0.00000000E+00  0.00000000E+00
  0.00000000E+00  0.00000000E+00  0.00000000E+00
  0.00000000E+00  0.00000000E+00  0.00000000E+00
  0.00000000E+00  0.00000000E+00  0.00000000E+00
  0.00000000E+00  0.00000000E+00  0.00000000E+00
  0.00000000E+00  0.00000000E+00  0.00000000E+00
  0.00000000E+00  0.00000000E+00  0.00000000E+00
  0.00000000E+00  0.00000000E+00  0.00000000E+00
  0.00000000E+00  0.00000000E+00  0.00000000E+00
  0.00000000E+00  0.00000000E+00  0.00000000E+00
  0.00000000E+00  0.00000000E+00  0.00000000E+00
  0.00000000E+00  0.00000000E+00  0.00000000E+00
  0.00000000E+00  0.00000000E+00  0.00000000E+00
  0.00000000E+00  0.00000000E+00  0.00000000E+00
  0.00000000E+00  0.00000000E+00  0.00000000E+00
  0.00000000E+00  0.00000000E+00  0.00000000E+00
  0.00000000E+00  0.00000000E+00  0.00000000E+00
  0.00000000E+00  0.00000000E+00  0.00000000E+00
  0.00000000E+00  0.00000000E+00  0.00000000E+00
  0.00000000E+00  0.00000000E+00  0.00000000E+00
  0.00000000E+00  0.00000000E+00  0.00000000E+00
  0.00000000E+00  0.00000000E+00  0.00000000E+00
  0.00000000E+00  0.00000000E+00  0.00000000E+00
  0.00000000E+00  0.00000000E+00  0.00000000E+00
  0.00000000E+00  0.00000000E+00  0.00000000E+00
  0.00000000E+00  0.00000000E+00  0.00000000E+00
  0.00000000E+00  0.00000000E+00  0.00000000E+00
  0.00000000E+00  0.00000000E+00  0.00000000E+00
  0.00000000E+00  0.00000000E+00  0.00000000E+00
  0.00000000E+00  0.00000000E+00  0.00000000E+00
  0.00000000E+00  0.00000000E+00  0.00000000E+00
  0.00000000E+00  0.00000000E+00  0.00000000E+00
  0.00000000E+00  0.00000000E+00  0.00000000E+00
  0.00000000E+00  0.00000000E+00  0.00000000E+00
  0.00000000E+00  0.00000000E+00  0.00000000E+00
  0.00000000E+00  0.00000000E+00  0.00000000E+00
  0.00000000E+00  0.00000000E+00  0.00000000E+00
  0.00000000E+00  0.00000000E+00  0.00000000E+00
  0.00000000E+00  0.00000000E+00  0.00000000E+00
  0.00000000E+00  0.00000000E+00  0.00000000E+00
  0.00000000E+00  0.00000000E+00  0.00000000E+00
  0.00000000E+00  0.00000000E+00  0.00000000E+00
  0.00000000E+00  0.00000000E+00  0.00000000E+00
  0.00000000E+00  0.00000000E+00  0.00000000E+00
  0.00000000E+00  0.00000000E+00  0.00000000E+00
  0.00000000E+00  0.00000000E+00  0.00000000E+00
  0.00000000E+00  0.00000000E+00  0.00000000E+00
  0.00000000E+00  0.00000000E+00  0.00000000E+00
  0.00000000E+00  0.00000000E+00  0.00000000E+00
  0.00000000E+00  0.00000000E+00  0.00000000E+00
  0.00000000E+00  0.00000000E+00  0.00000000E+00
  0.00000000E+00  0.00000000E+00  0.00000000E+00
  0.00000000E+00  0.00000000E+00  0.00000000E+00
  0.00000000E+00  0.00000000E+00  0.00000000E+00
  0.00000000E+00  0.00000000E+00  0.00000000E+00
  0.00000000E+00  0.00000000E+00  0.00000000E+00
  0.00000000E+00  0.00000000E+00  0.00000000E+00
  0.00000000E+00  0.00000000E+00  0.00000000E+00
  0.00000000E+00  0.00000000E+00  0.00000000E+00
  0.00000000E+00  0.00000000E+00  0.00000000E+00
  0.00000000E+00  0.00000000E+00  0.00000000E+00
  0.00000000E+00  0.00000000E+00  0.00000000E+00
  0.00000000E+00  0.00000000E+00  0.00000000E+00
  0.00000000E+00  0.00000000E+00  0.00000000E+00
  0.00000000E+00  0.00000000E+00  0.00000000E+00
  0.00000000E+00  0.00000000E+00  0.00000000E+00
  0.00000000E+00  0.00000000E+00  0.00000000E+00
  0.00000000E+00  0.00000000E+00  0.00000000E+00
  0.00000000E+00  0.00000000E+00  0.00000000E+00
  0.00000000E+00  0.00000000E+00  0.00000000E+00
  0.00000000E+00  0.00000000E+00  0.00000000E+00
  0.00000000E+00  0.00000000E+00  0.00000000E+00
  0.00000000E+00  0.00000000E+00  0.00000000E+00
  0.00000000E+00  0.00000000E+00  0.00000000E+00
  0.00000000E+00  0.00000000E+00  0.00000000E+00
  0.00000000E+00  0.00000000E+00  0.00000000E+00
  0.00000000E+00  0.00000000E+00  0.00000000E+00
