ALGO = Fast
EDIFF = 0.0004
ENCUT = 520
ISTART = 0
#ICHARG= 0
IBRION = 2
ISIF = 3
ISMEAR = 0
ISPIN = 2
LASPH = True
#LORBIT = 11
LREAL = Auto
LWAVE = False
MAGMOM = 8*0.6
NELM = 100
NSW = 99
PREC = Accurate
SIGMA = 0.05
