pymatgen with grid density = 672 / number of atoms
0
Gamma
4 4 4
