Na4 S4
1.0
   5.7399800000000001    0.0000000000000000    0.0000000000000004
   0.0000000000000009    5.7399800000000001    0.0000000000000004
   0.0000000000000000    0.0000000000000000    5.7399800000000001
Na S
4 4
direct
   0.0000000000000000    0.0000000000000000    0.0000000000000000 Na+
   0.0000000000000000    0.5000000000000000    0.5000000000000000 Na+
   0.5000000000000000    0.0000000000000000    0.5000000000000000 Na+
   0.5000000000000000    0.5000000000000000    0.0000000000000000 Na+
   0.0000000000000000    0.0000000000000000    0.5000000000000000 S-
   0.0000000000000000    0.5000000000000000    0.0000000000000000 S-
   0.5000000000000000    0.0000000000000000    0.0000000000000000 S-
   0.5000000000000000    0.5000000000000000    0.5000000000000000 S-
