Na24 Al8 S24                            
   1.0000000000000000     
    12.1828203277415312   -0.0000000000000000    0.0000000000000007
    -0.0000000000000010   15.1349386410830835    2.3941278804312205
     0.0000000000000000    0.0113082934473333   13.7304524371335805
   Na   Al   S 
    48    16    48
Direct
  0.9279131148598038  0.0414812909673180  0.8720930072371381
  0.7720100271418312  0.4228161014606374  0.1008961598483782
  0.8007298394800525  0.2464459263562188  0.7731081479645321
  0.7864938591424120  0.4940546225111628  0.4592833330537619
  0.9434637468138857  0.0157990816064676  0.2989937082601917
  0.2612662202248945  0.2851745156855536  0.4556665555461506
  0.7859273981352314  0.1957941992090559  0.2108522517055257
  0.2687479262201061  0.0204566548981682  0.4890174690592142
  0.7738897011950020  0.2159077979138851 -0.0008809415169532
  0.5065225462141092  0.1905689379426217  0.6883916210495984
  0.2322457537990706  0.2780271006788484  0.9237894240867781
  0.2412801377237491  0.0392483147355105  0.9540341657509176
  0.7503093871840361  0.1935487314371789  0.5355364835354428
  0.1258190796789146  0.2322137945790126  0.2550168463243882
  0.1229367082928948  0.4540758483212306  0.1536614603013009
  0.5968379119914577  0.2745044349600128  0.3350602562693076
  0.3181226140390019  0.4957974991732729  0.7468685262229813
  0.0139866458401273  0.4446514746226236  0.7245979152485209
  0.3308325652236122  0.5297282226145612  0.2563394077615047
  0.1804529934753284  0.2415518136500352  0.7313383627402495
  0.3668153142797852  0.2229156973308914  0.1344681539544560
  0.6916498199247235  0.0156598865914279  0.7483744295020344
  0.5372384056317626  0.3106891692382487  0.8385729653928876
  0.6238217164948832 -0.0296560465219101  0.2912634143776829
  0.8533296887111674  0.5404210103055321  0.8667472305415374
  0.7332993803879039  1.0058149601558175 -0.0011163409310930
  0.8409521404951485  0.7591602466917700  0.7254677968419352
  0.8085707360709473  0.9879290649563258  0.5368450052785887
  1.0302890969204717  0.5847956047232344  0.2599831796203022
  0.2446586950118343  0.7683117782471605  0.4771528877650936
  0.8085588742969350  0.7525805946564393  0.2330071961548302
  0.2484322593099265  0.4917886374973612  0.5041523108409107
  0.5844169889855482  0.8042713076363655 -0.1667705150103393
  0.4487854587996108  0.6949040226819845  0.6694057468904659
  0.1688524202456526  0.7847719760854959  1.2474342575912827
  0.2934328324804631  0.5265424637699085  0.9696735927012091
  0.7969296014108433  0.7328165759945916  0.5148714133037611
  0.4578567768996342  0.7114589830974187  0.1774886601768735
  0.0661754185008289  0.9390932691933273  0.1212815497862182
  0.5653365537209023  0.7887062141761957  0.3586170535115125
  0.3488946306527786  1.0288342961973920  0.7263496354091237
  0.0603225412631650  0.9504808642151825  0.6867780418695159
  0.3374249244330904  1.0072937931281072  0.2377392286281402
  0.1608484836193325  0.7720976499247801  0.7626876447586265
  0.7546077874894096  0.6792400828162550  0.0184481567625774
  0.6556042054888970  0.5014764539533788  0.7048396193409397
  0.2581783874947568  0.7934990203984705  0.9798315515494936
  0.6605826050251858  0.4815402774005338  0.2793011220436491
  0.0301627475249072  0.1689001340406299  0.0696760692342193
  0.0135719189341546  0.1742039130674404  0.5776820491876554
  0.5029323597574287  0.0870436908289733  0.4379795645276689
  0.4748680102929710  0.3956822676132971  0.5741081225523937
  0.4933661830775762  0.0792628362579420  0.9147180628397633
  0.4959091186956309  0.4027282573504959  0.0756940302021534
  0.9920772294803711  0.3256679423191651  0.4105705356481662
  0.9810095040363525  0.3562275981387384  0.9237628250717678
  0.0146767300300937  0.6500128544132787  0.0574611377116148
  0.0162242853380687  0.6590000320643464  0.5629122697837635
  0.4969754150433622  0.5646084127408937  0.4272429313631964
  0.5000562833762574  0.9168437183182129  0.6006065988365809
  0.5168322747246551  0.5936740467761108  0.9262423108117094
  0.4820838553927535  0.9304438631311267  0.0976635448081271
  0.9938617965543359  0.8394738743712196  0.4171413615320784
  0.9474806746733766  0.8292840836374770  0.9475384537324588
  0.3628160127334484  0.1677389882208405  0.8463101486281359
  0.1927951206745491  0.1152745084721919  0.1082581713342022
  0.3492625518208343  0.1588760454227368  0.3625779049652292
  0.1336760740891773  0.4344073465572939  0.8843064270699923
 -0.0408366863201416  0.3077613123221481  0.1121004233794122
  0.6247972951205517  0.3040679433142724  0.1255949508471710
  0.8177816671975964  0.3546496605537563  0.3572877755937667
  0.1176892272131371  0.4270065595418440  0.3490763163004975
  0.3316355546199199  0.3459699153212745  0.6457808158466641
  0.4701679933030242  0.4454805663473439  0.9031293057967130
  0.6356856065982339  0.1673315888624858  0.8646753889291241
  0.8916943489006333  0.0744001434775794  0.0977147878999102
  0.1860841436898518  0.1094693654941115  0.6140034845153083
  0.0282271923234047  0.1797259692386682  0.4067647759380152
  0.6411937577685923  0.3430499922264023  0.6241544656237799
  0.4953994830284337  0.0773485967336217  0.0805563123988456
  0.6955778155601187  0.1272118461386956  0.3814121293889039
  0.8796538771627537  0.1119377705950945  0.6710699732589465
  0.9913996395296525  0.3184566743902458  0.5831098348553067
  1.0214717525469437  0.2056784905412955  0.8978347688419238
  0.8185145840789810  0.3847002981478072  0.8445297586960425
  0.5306430704471776  0.0665480331387277  0.6089816648116277
  0.3345710854725000  0.3907117093575704  0.1422584405641574
  0.4499861982360603  0.4174425373788555  0.4193560343969698
  0.3904589456001914  0.7010891099190640  0.8932664411628410
  0.1882034080849450  0.6213032007248093  0.1313375878272382
  0.3643797413581125  0.6565770795124325  0.3886527185831765
  0.1030778838992787  0.9160929372114625  0.8907976396111321
 -0.0073596508586430  0.7924243621209621  0.0935604660711600
  0.6183489900466842  0.8656363090353815  0.1681256893347153
  0.8300218002930598  0.9013009000027501  0.3766869291333902
  0.1296064696216211  0.9258811022420462  0.3396009101377650
  0.3562682368795534  0.8709425346282013  0.7031290429636072
  0.4704272463518148  0.9441378024450359  0.9198205491599498
  0.6770503572778386  0.6322128993091436  0.8339256827157521
  0.8932541849239561  0.5616266844612516  0.1285009196329965
  0.1844184231778595  0.6312568721773331  0.6186889195647718
  0.0062571702697920  0.6946958366662743  0.3875319773764627
  0.6324381634130505  0.8140212273420999  0.6240938453014921
  0.5363824141755679  0.5562040684812701  0.1045743326466395
  0.6499666246437327  0.6325560211927294  0.3602465121519073
  0.8780064407234864  0.5755221901165253  0.6421157376895364
  1.0009949440636472  0.8076158628664444  0.6081238961574518
  0.9835263358360616  0.7005361505708502  0.8923734282589778
  0.8011217712436665  0.8902419197026432  0.8872984903281883
  0.5150947472556906  0.5477429821306454  0.5893224246064219
  0.3135064167308402  0.8720667020827011  0.1352329537206189
  0.4605475417120011  0.9336092306836052  0.4301507086377653

 -0.74555204E-02  0.41163531E-02 -0.15018441E-02
 -0.51272562E-02 -0.46048600E-02 -0.52036079E-02
 -0.47916507E-02  0.89119601E-03  0.60864810E-02
 -0.63895903E-02 -0.25047910E-03  0.81368321E-02
 -0.26947301E-02  0.48705297E-02 -0.49091717E-02
 -0.35743400E-02  0.27632849E-02 -0.95654735E-02
 -0.15928896E-02 -0.13960888E-01 -0.53219049E-02
  0.64880099E-03 -0.37834727E-02  0.22773789E-02
  0.17383236E-02 -0.15838752E-01 -0.53513848E-02
  0.13847903E-01 -0.48268538E-02 -0.80551902E-02
  0.61376325E-02  0.51080099E-03  0.43213200E-02
 -0.11006363E-02  0.85548814E-02  0.60781490E-02
  0.45116034E-03 -0.67226814E-02 -0.11981868E-01
  0.34092788E-02  0.27996080E-02  0.45315832E-02
 -0.52001645E-02 -0.18442080E-02  0.31863816E-02
 -0.19822928E-02 -0.13374495E-02  0.31625588E-03
 -0.57730156E-02 -0.97609826E-03 -0.28712277E-02
 -0.81200038E-02  0.22687841E-02 -0.84742074E-02
 -0.10749226E-02  0.75583694E-02  0.48777824E-02
  0.62896946E-03 -0.67218868E-02 -0.92040622E-02
  0.27691439E-03  0.26977201E-02  0.86905430E-03
  0.68197776E-02 -0.14797251E-01  0.65724804E-02
 -0.26640820E-02 -0.51405730E-02 -0.32819660E-02
  0.61263509E-02 -0.10115919E-01 -0.25474547E-02
 -0.18589404E-02  0.13528006E-01  0.34147113E-02
 -0.57176804E-03 -0.12699873E-01  0.84205610E-02
 -0.18976837E-02 -0.15059666E-02  0.74820420E-03
 -0.51002048E-02  0.19277667E-01 -0.24622663E-02
  0.34260777E-03 -0.29831099E-02  0.57847508E-02
  0.61322184E-02  0.57897241E-02 -0.76065199E-02
  0.27052952E-02  0.56822703E-02 -0.18367435E-02
 -0.49953572E-02  0.58817636E-02 -0.66998596E-02
  0.82383516E-02 -0.64836930E-03 -0.11048260E-02
 -0.53241901E-02  0.65811218E-02  0.43885562E-02
  0.11216916E-01 -0.55946660E-02  0.97132202E-02
 -0.24449058E-02  0.35567268E-02 -0.45367190E-03
  0.61691723E-02  0.19327259E-02 -0.15138543E-02
  0.13024331E-02  0.41041328E-02 -0.39495544E-02
  0.47759004E-02 -0.30974175E-02 -0.37394159E-02
  0.37624289E-02 -0.13653871E-01 -0.38561747E-02
 -0.45769026E-02 -0.43734492E-02  0.13698218E-02
 -0.30425516E-03 -0.30454585E-03 -0.84051254E-02
 -0.66613211E-02  0.29137142E-02  0.57638104E-02
  0.36767293E-02  0.87438833E-03 -0.22411648E-02
 -0.52280646E-03 -0.32258348E-02 -0.51304060E-02
  0.66534472E-02 -0.11738113E-01 -0.43063667E-03
  0.89686032E-02  0.24910928E-02 -0.85532733E-02
 -0.25083404E-02  0.28161332E-02  0.10125298E-01
  0.50918245E-02  0.51227096E-02  0.67552083E-02
  0.15736923E-02  0.21610597E-02 -0.65593812E-03
  0.18895705E-02  0.58636899E-02  0.80738349E-02
  0.10263304E-01  0.37736710E-02 -0.44342023E-02
  0.58727230E-02  0.12540856E-02 -0.48285402E-02
 -0.67745594E-02 -0.31662072E-02  0.46527237E-02
  0.19209399E-02  0.27854507E-02 -0.33339673E-03
  0.15236192E-02  0.48957187E-02  0.16522740E-02
 -0.26795105E-02  0.40086259E-02  0.40485196E-02
  0.20990992E-02 -0.86854278E-02 -0.10984223E-01
  0.14047395E-02 -0.44869787E-02  0.26100561E-02
  0.83121023E-02  0.13042559E-02  0.85206464E-02
 -0.93037144E-02  0.14982900E-02  0.72287233E-03
 -0.64988359E-02  0.60824460E-02  0.12076509E-01
 -0.20757606E-02 -0.15766110E-02  0.50633593E-02
 -0.12280559E-01  0.18233516E-02  0.29976597E-02
 -0.13404281E-02  0.90273566E-02 -0.15696928E-02
  0.38051727E-03 -0.61603232E-03  0.77292503E-02
  0.59548598E-02  0.80350072E-03 -0.37485404E-02
 -0.57352334E-02  0.13731676E-02 -0.23811133E-02
  0.31262357E-02 -0.70082310E-04  0.59363480E-02
  0.58729263E-02 -0.58053445E-03 -0.61293394E-02
 -0.30655491E-02 -0.12458656E-01 -0.80093560E-02
 -0.54660114E-02  0.10208487E-02 -0.21129788E-02
  0.12106534E-02  0.14059814E-02 -0.65967881E-02
 -0.62177629E-02  0.66147290E-03  0.33459325E-02
  0.14136029E-02 -0.32638870E-02  0.34217784E-03
  0.58103582E-02  0.60471701E-03  0.24539822E-02
 -0.41040108E-02 -0.96062424E-02 -0.18766758E-02
 -0.36079834E-02  0.46516846E-02 -0.11954182E-01
 -0.16255669E-02  0.36052502E-02 -0.55674416E-02
 -0.32635526E-02 -0.37182068E-02  0.13039585E-01
  0.29324916E-02 -0.69622294E-02  0.85565099E-02
 -0.46991988E-02 -0.16523853E-02  0.67639507E-02
  0.28892114E-02  0.35609065E-03  0.56328393E-02
  0.16550390E-02 -0.55558736E-03 -0.21318122E-02
 -0.50398677E-02  0.86809734E-02  0.50613701E-02
 -0.16499063E-02 -0.93331737E-03 -0.30093676E-02
 -0.15533988E-02 -0.79382198E-02 -0.18572790E-02
 -0.81291231E-02 -0.93602322E-03 -0.40831596E-02
 -0.10348872E-02  0.20699829E-02  0.49588923E-03
 -0.22395736E-02 -0.58455479E-02 -0.12161707E-03
  0.15368788E-02 -0.24023386E-02 -0.21501626E-02
 -0.11060692E-02  0.73251769E-02 -0.42581601E-02
  0.39135067E-03 -0.20007512E-03 -0.13262200E-01
 -0.10877777E-02  0.67598243E-02  0.33795611E-02
 -0.16084146E-02  0.51281449E-02 -0.61594387E-02
 -0.51312704E-02 -0.50288574E-02  0.28491537E-02
 -0.16182790E-02  0.20267299E-02 -0.10936864E-02
  0.42742240E-02  0.41561082E-02  0.29285995E-02
  0.65021216E-02 -0.43883310E-02  0.11420337E-01
  0.82325172E-02 -0.24460368E-02 -0.21358381E-02
  0.53969469E-02  0.80076105E-03 -0.14235657E-03
  0.25485190E-02 -0.27447401E-02  0.44023438E-02
  0.40922695E-02 -0.18214311E-02 -0.30071586E-02
 -0.47349381E-02  0.22437372E-02  0.43295787E-02
 -0.18352442E-02  0.63551384E-02  0.42583906E-02
  0.42430708E-03  0.10815911E-02  0.43076980E-03
  0.27566762E-02 -0.26064079E-02  0.12290834E-02
  0.82612796E-02  0.62912688E-02  0.77668830E-02
 -0.12315761E-01 -0.54343924E-02  0.38249635E-02
 -0.10101257E-02 -0.34603776E-02 -0.66373940E-02
  0.39673122E-02  0.66215344E-02  0.15175608E-02
  0.23347928E-02  0.11003068E-01 -0.97826360E-02

           1
   2.0000000000000000     
 -0.49681001E+00  0.69721523E-02  0.70440104E-02 -0.50381809E+00
  0.92668917E+00  0.42025479E-01  0.87177936E+00
  0.77116831E+00  0.42220808E+00  0.10024421E+00
  0.79994322E+00  0.24656305E+00  0.77397429E+00
  0.78544491E+00  0.49402063E+00  0.46047448E+00
  0.94302136E+00  0.16443314E-01  0.29816630E+00
  0.26067944E+00  0.28554076E+00  0.45420937E+00
  0.78566590E+00  0.19394968E+00  0.21039868E+00
  0.26885444E+00  0.19956376E-01  0.48943643E+00
  0.77417507E+00  0.21381510E+00  0.99870446E+00
  0.50879590E+00  0.18993189E+00  0.68732937E+00
  0.23325334E+00  0.27809414E+00  0.92440719E+00
  0.24109945E+00  0.40378282E-01  0.95472249E+00
  0.75038345E+00  0.19266155E+00  0.53394588E+00
  0.12637877E+00  0.23258330E+00  0.25561249E+00
  0.12208302E+00  0.45383177E+00  0.15416815E+00
  0.59651249E+00  0.27432764E+00  0.33513715E+00
  0.31717488E+00  0.49566881E+00  0.74647274E+00
  0.12653621E-01  0.44495224E+00  0.72331110E+00
  0.33065610E+00  0.53072662E+00  0.25687583E+00
  0.18055625E+00  0.24066444E+00  0.73015241E+00
  0.36686077E+00  0.22327214E+00  0.13453259E+00
  0.69276939E+00  0.13703540E-01  0.74967291E+00
  0.53680106E+00  0.31001014E+00  0.83821331E+00
  0.62482745E+00  0.96900729E+00  0.29112542E+00
  0.85302451E+00  0.54220852E+00  0.86693294E+00
  0.73320552E+00  0.41356056E-02  0.40303445E-03
  0.84064061E+00  0.75896113E+00  0.72561150E+00
  0.80773346E+00  0.99047710E+00  0.53604206E+00
  0.30345341E-01  0.58440072E+00  0.26089465E+00
  0.24566539E+00  0.76907779E+00  0.47591134E+00
  0.80900299E+00  0.75333177E+00  0.23260867E+00
  0.24761219E+00  0.49256671E+00  0.50304073E+00
  0.58576944E+00  0.80418574E+00  0.83308347E+00
  0.44791141E+00  0.69577332E+00  0.66989342E+00
  0.17069385E+00  0.78403152E+00  0.24897821E+00
  0.29303146E+00  0.52701258E+00  0.96952554E+00
  0.79794237E+00  0.73307217E+00  0.51460634E+00
  0.45807059E+00  0.71200182E+00  0.17681871E+00
  0.66959457E-01  0.93868432E+00  0.12080817E+00
  0.56595422E+00  0.78690211E+00  0.35836993E+00
  0.34814326E+00  0.28256144E-01  0.72664998E+00
  0.60272593E-01  0.95044153E+00  0.68556060E+00
  0.33633136E+00  0.76782474E-02  0.23851176E+00
  0.16145208E+00  0.77221345E+00  0.76234100E+00
  0.75452196E+00  0.67881431E+00  0.17775094E-01
  0.65669647E+00  0.49992517E+00  0.70504738E+00
  0.25965072E+00  0.79382918E+00  0.97852810E+00
  0.66017082E+00  0.48191136E+00  0.28071129E+00
  0.30998650E-01  0.16957643E+00  0.70542121E-01
  0.13830265E-01  0.17448959E+00  0.57753669E+00
  0.50324256E+00  0.87817768E-01  0.43902064E+00
  0.47655289E+00  0.39618149E+00  0.57337518E+00
  0.49433028E+00  0.79429104E-01  0.91398574E+00
  0.49479697E+00  0.40230930E+00  0.76444806E-01
  0.99239258E+00  0.32603611E+00  0.41045778E+00
  0.98125963E+00  0.35687445E+00  0.92389071E+00
  0.14236847E-01  0.65054220E+00  0.57958551E-01
  0.16568885E-01  0.65785335E+00  0.56151223E+00
  0.49720602E+00  0.56401512E+00  0.42772657E+00
  0.50142084E+00  0.91701516E+00  0.60181784E+00
  0.51530492E+00  0.59387198E+00  0.92631309E+00
  0.48101697E+00  0.93124642E+00  0.99282691E-01
  0.99352103E+00  0.83926496E+00  0.41791533E+00
  0.94546463E+00  0.82952473E+00  0.94793314E+00
  0.36259596E+00  0.16893223E+00  0.84587344E+00
  0.19285759E+00  0.11519225E+00  0.10939837E+00
  0.35024013E+00  0.15898265E+00  0.36201330E+00
  0.13273455E+00  0.43458909E+00  0.88392790E+00
  0.95967653E+00  0.30775140E+00  0.11296685E+00
  0.62576143E+00  0.30399189E+00  0.12471540E+00
  0.81727841E+00  0.35300397E+00  0.35640807E+00
  0.11679190E+00  0.42714171E+00  0.34874497E+00
  0.33183430E+00  0.34615645E+00  0.64478739E+00
  0.46914725E+00  0.44556762E+00  0.90360150E+00
  0.63591767E+00  0.16690019E+00  0.86480045E+00
  0.89264821E+00  0.74479797E-01  0.98058350E-01
  0.18541041E+00  0.10819999E+00  0.61395146E+00
  0.27634886E-01  0.18034205E+00  0.40491609E+00
  0.64092690E+00  0.34352707E+00  0.62326032E+00
  0.49486372E+00  0.76855773E-01  0.82541611E-01
  0.69605923E+00  0.12629077E+00  0.38281909E+00
  0.87888243E+00  0.11171865E+00  0.67209343E+00
  0.99187395E+00  0.31850312E+00  0.58392222E+00
  0.21743453E-01  0.20560530E+00  0.89753701E+00
  0.81768721E+00  0.38584704E+00  0.84506705E+00
  0.53037221E+00  0.66425012E-01  0.60856477E+00
  0.33431607E+00  0.38966278E+00  0.14217080E+00
  0.44865168E+00  0.41731928E+00  0.41878277E+00
  0.39028905E+00  0.70136263E+00  0.89329098E+00
  0.18783575E+00  0.62053066E+00  0.13145458E+00
  0.36463204E+00  0.65625982E+00  0.38839484E+00
  0.10289631E+00  0.91706151E+00  0.89000850E+00
  0.99270460E+00  0.79239936E+00  0.91633031E-01
  0.61817041E+00  0.86652933E+00  0.16846225E+00
  0.82975775E+00  0.90197932E+00  0.37567144E+00
  0.12876409E+00  0.92521617E+00  0.34013186E+00
  0.35600257E+00  0.87121051E+00  0.70292301E+00
  0.47112893E+00  0.94468676E+00  0.92015141E+00
  0.67811778E+00  0.63163169E+00  0.83569053E+00
  0.89460568E+00  0.56130364E+00  0.12824614E+00
  0.18530442E+00  0.63136272E+00  0.61864973E+00
  0.66755494E-02  0.69433261E+00  0.38823656E+00
  0.63310997E+00  0.81378083E+00  0.62369773E+00
  0.53560510E+00  0.55650013E+00  0.10515336E+00
  0.64966534E+00  0.63339546E+00  0.36072043E+00
  0.87807610E+00  0.57566509E+00  0.64215357E+00
  0.14474955E-02  0.80727126E+00  0.60836301E+00
  0.98488255E+00  0.70136677E+00  0.89335993E+00
  0.79909995E+00  0.88952328E+00  0.88798095E+00
  0.51492892E+00  0.54728637E+00  0.58843523E+00
  0.31415771E+00  0.87294165E+00  0.13530144E+00
  0.46093083E+00  0.93506448E+00  0.42847201E+00
  0.00000000E+00  0.00000000E+00  0.00000000E+00
  0.00000000E+00  0.00000000E+00  0.00000000E+00
  0.00000000E+00  0.00000000E+00  0.00000000E+00
  0.00000000E+00  0.00000000E+00  0.00000000E+00
  0.00000000E+00  0.00000000E+00  0.00000000E+00
  0.00000000E+00  0.00000000E+00  0.00000000E+00
  0.00000000E+00  0.00000000E+00  0.00000000E+00
  0.00000000E+00  0.00000000E+00  0.00000000E+00
  0.00000000E+00  0.00000000E+00  0.00000000E+00
  0.00000000E+00  0.00000000E+00  0.00000000E+00
  0.00000000E+00  0.00000000E+00  0.00000000E+00
  0.00000000E+00  0.00000000E+00  0.00000000E+00
  0.00000000E+00  0.00000000E+00  0.00000000E+00
  0.00000000E+00  0.00000000E+00  0.00000000E+00
  0.00000000E+00  0.00000000E+00  0.00000000E+00
  0.00000000E+00  0.00000000E+00  0.00000000E+00
  0.00000000E+00  0.00000000E+00  0.00000000E+00
  0.00000000E+00  0.00000000E+00  0.00000000E+00
  0.00000000E+00  0.00000000E+00  0.00000000E+00
  0.00000000E+00  0.00000000E+00  0.00000000E+00
  0.00000000E+00  0.00000000E+00  0.00000000E+00
  0.00000000E+00  0.00000000E+00  0.00000000E+00
  0.00000000E+00  0.00000000E+00  0.00000000E+00
  0.00000000E+00  0.00000000E+00  0.00000000E+00
  0.00000000E+00  0.00000000E+00  0.00000000E+00
  0.00000000E+00  0.00000000E+00  0.00000000E+00
  0.00000000E+00  0.00000000E+00  0.00000000E+00
  0.00000000E+00  0.00000000E+00  0.00000000E+00
  0.00000000E+00  0.00000000E+00  0.00000000E+00
  0.00000000E+00  0.00000000E+00  0.00000000E+00
  0.00000000E+00  0.00000000E+00  0.00000000E+00
  0.00000000E+00  0.00000000E+00  0.00000000E+00
  0.00000000E+00  0.00000000E+00  0.00000000E+00
  0.00000000E+00  0.00000000E+00  0.00000000E+00
  0.00000000E+00  0.00000000E+00  0.00000000E+00
  0.00000000E+00  0.00000000E+00  0.00000000E+00
  0.00000000E+00  0.00000000E+00  0.00000000E+00
  0.00000000E+00  0.00000000E+00  0.00000000E+00
  0.00000000E+00  0.00000000E+00  0.00000000E+00
  0.00000000E+00  0.00000000E+00  0.00000000E+00
  0.00000000E+00  0.00000000E+00  0.00000000E+00
  0.00000000E+00  0.00000000E+00  0.00000000E+00
  0.00000000E+00  0.00000000E+00  0.00000000E+00
  0.00000000E+00  0.00000000E+00  0.00000000E+00
  0.00000000E+00  0.00000000E+00  0.00000000E+00
  0.00000000E+00  0.00000000E+00  0.00000000E+00
  0.00000000E+00  0.00000000E+00  0.00000000E+00
  0.00000000E+00  0.00000000E+00  0.00000000E+00
  0.00000000E+00  0.00000000E+00  0.00000000E+00
  0.00000000E+00  0.00000000E+00  0.00000000E+00
  0.00000000E+00  0.00000000E+00  0.00000000E+00
  0.00000000E+00  0.00000000E+00  0.00000000E+00
  0.00000000E+00  0.00000000E+00  0.00000000E+00
  0.00000000E+00  0.00000000E+00  0.00000000E+00
  0.00000000E+00  0.00000000E+00  0.00000000E+00
  0.00000000E+00  0.00000000E+00  0.00000000E+00
  0.00000000E+00  0.00000000E+00  0.00000000E+00
  0.00000000E+00  0.00000000E+00  0.00000000E+00
  0.00000000E+00  0.00000000E+00  0.00000000E+00
  0.00000000E+00  0.00000000E+00  0.00000000E+00
  0.00000000E+00  0.00000000E+00  0.00000000E+00
  0.00000000E+00  0.00000000E+00  0.00000000E+00
  0.00000000E+00  0.00000000E+00  0.00000000E+00
  0.00000000E+00  0.00000000E+00  0.00000000E+00
  0.00000000E+00  0.00000000E+00  0.00000000E+00
  0.00000000E+00  0.00000000E+00  0.00000000E+00
  0.00000000E+00  0.00000000E+00  0.00000000E+00
  0.00000000E+00  0.00000000E+00  0.00000000E+00
  0.00000000E+00  0.00000000E+00  0.00000000E+00
  0.00000000E+00  0.00000000E+00  0.00000000E+00
  0.00000000E+00  0.00000000E+00  0.00000000E+00
  0.00000000E+00  0.00000000E+00  0.00000000E+00
  0.00000000E+00  0.00000000E+00  0.00000000E+00
  0.00000000E+00  0.00000000E+00  0.00000000E+00
  0.00000000E+00  0.00000000E+00  0.00000000E+00
  0.00000000E+00  0.00000000E+00  0.00000000E+00
  0.00000000E+00  0.00000000E+00  0.00000000E+00
  0.00000000E+00  0.00000000E+00  0.00000000E+00
  0.00000000E+00  0.00000000E+00  0.00000000E+00
  0.00000000E+00  0.00000000E+00  0.00000000E+00
  0.00000000E+00  0.00000000E+00  0.00000000E+00
  0.00000000E+00  0.00000000E+00  0.00000000E+00
  0.00000000E+00  0.00000000E+00  0.00000000E+00
  0.00000000E+00  0.00000000E+00  0.00000000E+00
  0.00000000E+00  0.00000000E+00  0.00000000E+00
  0.00000000E+00  0.00000000E+00  0.00000000E+00
  0.00000000E+00  0.00000000E+00  0.00000000E+00
  0.00000000E+00  0.00000000E+00  0.00000000E+00
  0.00000000E+00  0.00000000E+00  0.00000000E+00
  0.00000000E+00  0.00000000E+00  0.00000000E+00
  0.00000000E+00  0.00000000E+00  0.00000000E+00
  0.00000000E+00  0.00000000E+00  0.00000000E+00
  0.00000000E+00  0.00000000E+00  0.00000000E+00
  0.00000000E+00  0.00000000E+00  0.00000000E+00
  0.00000000E+00  0.00000000E+00  0.00000000E+00
  0.00000000E+00  0.00000000E+00  0.00000000E+00
  0.00000000E+00  0.00000000E+00  0.00000000E+00
  0.00000000E+00  0.00000000E+00  0.00000000E+00
  0.00000000E+00  0.00000000E+00  0.00000000E+00
  0.00000000E+00  0.00000000E+00  0.00000000E+00
  0.00000000E+00  0.00000000E+00  0.00000000E+00
  0.00000000E+00  0.00000000E+00  0.00000000E+00
  0.00000000E+00  0.00000000E+00  0.00000000E+00
  0.00000000E+00  0.00000000E+00  0.00000000E+00
  0.00000000E+00  0.00000000E+00  0.00000000E+00
  0.00000000E+00  0.00000000E+00  0.00000000E+00
  0.00000000E+00  0.00000000E+00  0.00000000E+00
  0.00000000E+00  0.00000000E+00  0.00000000E+00
  0.00000000E+00  0.00000000E+00  0.00000000E+00
  0.00000000E+00  0.00000000E+00  0.00000000E+00
  0.00000000E+00  0.00000000E+00  0.00000000E+00
  0.00000000E+00  0.00000000E+00  0.00000000E+00
  0.00000000E+00  0.00000000E+00  0.00000000E+00
  0.00000000E+00  0.00000000E+00  0.00000000E+00
  0.00000000E+00  0.00000000E+00  0.00000000E+00
  0.00000000E+00  0.00000000E+00  0.00000000E+00
  0.00000000E+00  0.00000000E+00  0.00000000E+00
  0.00000000E+00  0.00000000E+00  0.00000000E+00
  0.00000000E+00  0.00000000E+00  0.00000000E+00
  0.00000000E+00  0.00000000E+00  0.00000000E+00
  0.00000000E+00  0.00000000E+00  0.00000000E+00
  0.00000000E+00  0.00000000E+00  0.00000000E+00
  0.00000000E+00  0.00000000E+00  0.00000000E+00
  0.00000000E+00  0.00000000E+00  0.00000000E+00
  0.00000000E+00  0.00000000E+00  0.00000000E+00
  0.00000000E+00  0.00000000E+00  0.00000000E+00
  0.00000000E+00  0.00000000E+00  0.00000000E+00
  0.00000000E+00  0.00000000E+00  0.00000000E+00
  0.00000000E+00  0.00000000E+00  0.00000000E+00
  0.00000000E+00  0.00000000E+00  0.00000000E+00
  0.00000000E+00  0.00000000E+00  0.00000000E+00
  0.00000000E+00  0.00000000E+00  0.00000000E+00
  0.00000000E+00  0.00000000E+00  0.00000000E+00
  0.00000000E+00  0.00000000E+00  0.00000000E+00
  0.00000000E+00  0.00000000E+00  0.00000000E+00
  0.00000000E+00  0.00000000E+00  0.00000000E+00
  0.00000000E+00  0.00000000E+00  0.00000000E+00
  0.00000000E+00  0.00000000E+00  0.00000000E+00
  0.00000000E+00  0.00000000E+00  0.00000000E+00
  0.00000000E+00  0.00000000E+00  0.00000000E+00
  0.00000000E+00  0.00000000E+00  0.00000000E+00
  0.00000000E+00  0.00000000E+00  0.00000000E+00
  0.00000000E+00  0.00000000E+00  0.00000000E+00
  0.00000000E+00  0.00000000E+00  0.00000000E+00
  0.00000000E+00  0.00000000E+00  0.00000000E+00
  0.00000000E+00  0.00000000E+00  0.00000000E+00
  0.00000000E+00  0.00000000E+00  0.00000000E+00
  0.00000000E+00  0.00000000E+00  0.00000000E+00
  0.00000000E+00  0.00000000E+00  0.00000000E+00
  0.00000000E+00  0.00000000E+00  0.00000000E+00
  0.00000000E+00  0.00000000E+00  0.00000000E+00
  0.00000000E+00  0.00000000E+00  0.00000000E+00
  0.00000000E+00  0.00000000E+00  0.00000000E+00
  0.00000000E+00  0.00000000E+00  0.00000000E+00
  0.00000000E+00  0.00000000E+00  0.00000000E+00
  0.00000000E+00  0.00000000E+00  0.00000000E+00
  0.00000000E+00  0.00000000E+00  0.00000000E+00
  0.00000000E+00  0.00000000E+00  0.00000000E+00
  0.00000000E+00  0.00000000E+00  0.00000000E+00
  0.00000000E+00  0.00000000E+00  0.00000000E+00
  0.00000000E+00  0.00000000E+00  0.00000000E+00
  0.00000000E+00  0.00000000E+00  0.00000000E+00
  0.00000000E+00  0.00000000E+00  0.00000000E+00
  0.00000000E+00  0.00000000E+00  0.00000000E+00
  0.00000000E+00  0.00000000E+00  0.00000000E+00
  0.00000000E+00  0.00000000E+00  0.00000000E+00
  0.00000000E+00  0.00000000E+00  0.00000000E+00
  0.00000000E+00  0.00000000E+00  0.00000000E+00
  0.00000000E+00  0.00000000E+00  0.00000000E+00
  0.00000000E+00  0.00000000E+00  0.00000000E+00
  0.00000000E+00  0.00000000E+00  0.00000000E+00
  0.00000000E+00  0.00000000E+00  0.00000000E+00
  0.00000000E+00  0.00000000E+00  0.00000000E+00
  0.00000000E+00  0.00000000E+00  0.00000000E+00
  0.00000000E+00  0.00000000E+00  0.00000000E+00
  0.00000000E+00  0.00000000E+00  0.00000000E+00
  0.00000000E+00  0.00000000E+00  0.00000000E+00
  0.00000000E+00  0.00000000E+00  0.00000000E+00
  0.00000000E+00  0.00000000E+00  0.00000000E+00
  0.00000000E+00  0.00000000E+00  0.00000000E+00
  0.00000000E+00  0.00000000E+00  0.00000000E+00
  0.00000000E+00  0.00000000E+00  0.00000000E+00
  0.00000000E+00  0.00000000E+00  0.00000000E+00
  0.00000000E+00  0.00000000E+00  0.00000000E+00
  0.00000000E+00  0.00000000E+00  0.00000000E+00
  0.00000000E+00  0.00000000E+00  0.00000000E+00
  0.00000000E+00  0.00000000E+00  0.00000000E+00
  0.00000000E+00  0.00000000E+00  0.00000000E+00
  0.00000000E+00  0.00000000E+00  0.00000000E+00
  0.00000000E+00  0.00000000E+00  0.00000000E+00
  0.00000000E+00  0.00000000E+00  0.00000000E+00
  0.00000000E+00  0.00000000E+00  0.00000000E+00
  0.00000000E+00  0.00000000E+00  0.00000000E+00
  0.00000000E+00  0.00000000E+00  0.00000000E+00
  0.00000000E+00  0.00000000E+00  0.00000000E+00
  0.00000000E+00  0.00000000E+00  0.00000000E+00
  0.00000000E+00  0.00000000E+00  0.00000000E+00
  0.00000000E+00  0.00000000E+00  0.00000000E+00
  0.00000000E+00  0.00000000E+00  0.00000000E+00
  0.00000000E+00  0.00000000E+00  0.00000000E+00
  0.00000000E+00  0.00000000E+00  0.00000000E+00
  0.00000000E+00  0.00000000E+00  0.00000000E+00
  0.00000000E+00  0.00000000E+00  0.00000000E+00
  0.00000000E+00  0.00000000E+00  0.00000000E+00
  0.00000000E+00  0.00000000E+00  0.00000000E+00
  0.00000000E+00  0.00000000E+00  0.00000000E+00
  0.00000000E+00  0.00000000E+00  0.00000000E+00
  0.00000000E+00  0.00000000E+00  0.00000000E+00
  0.00000000E+00  0.00000000E+00  0.00000000E+00
  0.00000000E+00  0.00000000E+00  0.00000000E+00
  0.00000000E+00  0.00000000E+00  0.00000000E+00
  0.00000000E+00  0.00000000E+00  0.00000000E+00
  0.00000000E+00  0.00000000E+00  0.00000000E+00
  0.00000000E+00  0.00000000E+00  0.00000000E+00
  0.00000000E+00  0.00000000E+00  0.00000000E+00
  0.00000000E+00  0.00000000E+00  0.00000000E+00
  0.00000000E+00  0.00000000E+00  0.00000000E+00
  0.00000000E+00  0.00000000E+00  0.00000000E+00
  0.00000000E+00  0.00000000E+00  0.00000000E+00
  0.00000000E+00  0.00000000E+00  0.00000000E+00
  0.00000000E+00  0.00000000E+00  0.00000000E+00
  0.00000000E+00  0.00000000E+00  0.00000000E+00
  0.00000000E+00  0.00000000E+00  0.00000000E+00
  0.00000000E+00  0.00000000E+00  0.00000000E+00
