Na24 Al8 S24                            
   1.0000000000000000     
    12.1828203277415312   -0.0000000000000000    0.0000000000000007
    -0.0000000000000010   15.1349386410830835    2.3941278804312205
     0.0000000000000000    0.0113082934473333   13.7304524371335805
   Na   Al   S 
    48    16    48
Direct
  0.9837852774823516  0.0378569011962437  0.8166342712193762
  0.7453251989314141  0.4944526530770044  0.0221413235996327
  0.8134049609482908  0.2736689148722996  0.7476474741443421
  0.7602059473863746  0.4710348689317824  0.5069834204662816
  0.9047101611866277  0.0593678278855347  0.3370504455611832
  0.2402867146454265  0.2846051073687727  0.5044867712574835
  0.7883169610406534  0.2651147973850791  0.2360911711586996
  0.2355289998631395  0.0738746246705155  0.4101513739195458
  0.6838249602206417  0.2704479482573879 -0.0201438703196718
  0.5086270019634567  0.2172521119506203  0.7127464564036592
  0.2017443358838185  0.2321504122721907  1.0173342320589045
  0.2316673487293991  0.0260916921781758  1.0114336822536241
  0.7666691253051769  0.2107689925921535  0.5328368764307421
  0.1928235229708118  0.2697916356740062  0.2540343620499092
 -0.0062595746018949  0.4637340555802419  0.2003350523121310
  0.5918592782759524  0.2896916032463082  0.3721320548769204
  0.3533129147282807  0.5220365125503290  0.7427596609927354
  0.0631906068823735  0.4537251847184698  0.6564668892519551
  0.3242042031753485  0.4584310602188321  0.2241006829498776
  0.2169848346165187  0.1984584492154533  0.7526422322651467
  0.4888556785136809  0.2100639441756538  0.1958786751826389
  0.6606045502277648 -0.0244623495965640  0.7480116337527117
  0.3282038941258747  0.3349291829532449  0.8680146891523044
  0.6739252579324299  0.0249186596101307  0.2671888544825882
  0.9811090066581271  0.5238518773636317  0.8937099353573442
  0.7622410874506104  1.0224901845711638 -0.0070071324668818
  0.7960069209312808  0.7477828661141580  0.7558699024442990
  0.7833454108167386  0.9731647991346268  0.5451329324804357
  0.9168428858644725  0.5994090153144610  0.3426941796065578
  0.2268721519669392  0.7959704148584417  0.4406379291570329
  0.8297164779624129  0.7691590514058354  0.2409429249332721
  0.2550345896336939  0.5177647341923939  0.3934455417964468
  0.5207932707421329  0.8089118360278839 -0.2059531936687710
  0.4053569046828499  0.6834779473429100  0.5831275467951330
  0.3171818562722060  0.7149861283560779  1.2011168889923027
  0.2320807919701572  0.5279163992541517  0.9741281637804622
  0.6868318987193383  0.6704115146068488  0.5495545692394698
  0.6042756239256267  0.6641741159260747  0.1928383076970541
  0.1025597323068485  0.8814690977543029  0.2296352052053898
  0.5315312636024575  0.7958995920872235  0.3377979726381479
  0.3145348433883289  0.9967702780554389  0.7232868499760781
  0.1389754242445020  0.9117036150784282  0.6062728955178811
  0.3672488304824056  1.0183024182035565  0.2502163100089559
  0.1917732955836633  0.6968582077878007  0.7382646504820681
  0.7415255835073787  0.7535374205266534 -0.0065281960782175
  0.6537320250835813  0.5042015962035249  0.7388512266420210
  0.3194620378956960  0.8070573199870253  0.9865421840118036
  0.6757875955733380  0.4598590706330137  0.2334266429060232
 -0.0084732425170618  0.1546138678096045  0.0998966228375061
 -0.0088328873597477  0.1609366737643511  0.5613563937635792
  0.4921721203312104  0.1005439459496019  0.4393260294695135
  0.4696440566133989  0.4105815583677597  0.5574380937369804
  0.5026840101869731  0.0781294697190681  0.9426698597112702
  0.4828547711474193  0.3997990305457189  0.0431072573647853
  0.9932198719468595  0.3337986544683035  0.4136385389245132
  1.0030123833587341  0.3165261333294117  0.9313250372790993
 -0.0044243589478762  0.6727011217031432  0.0823986531442049
  0.0220078712432775  0.6643253044441467  0.5681212680382262
  0.5314583045317537  0.5917568548496427  0.4283418189724648
  0.4701754561806870  0.8992449503201340  0.5617881234221438
  0.5160125686167604  0.5873375226191023  0.9332804725587700
  0.4931927477085203  0.9150618708634186  0.0815602252889024
  0.9603895900195596  0.8342002145616444  0.4445794238425665
  1.0102218755572794  0.8408009065049544  0.9038977698076723
  0.3489809123834846  0.1595303445997320  0.9219660803864057
  0.1288941914895339  0.0670857591469647  0.1725464017434402
  0.3691788114564493  0.1934602326720791  0.3842059148758330
  0.1388019187043390  0.4006805263399044  0.8499974461956147
  0.0128585699613831  0.3052044682860406  0.0995523721656197
  0.6314082667819939  0.3484216388752916  0.1285799323953975
  0.8304738371488255  0.3948599485017786  0.3710193427304165
  0.1454368918137014  0.3932176442767341  0.3526564891023758
  0.3431859629472545  0.3632615446776811  0.6579904262385305
  0.5114075468010787  0.4341383702074249  0.8807681754134450
  0.6648648763931387  0.1541932325439407  0.8450261029833556
  0.8303002714109490  0.0995269302552770  0.1435086501030015
  0.1703162553247946  0.1133855799694427  0.6053564180993807
 -0.0179032753771934  0.1839252423619728  0.3995511862567423
  0.6264400074069484  0.3377629118643485  0.5857584996547642
  0.5203587216174602  0.0784477456838675  0.1078050621247831
  0.6462063558436991  0.1396163817906854  0.3740195642131008
  0.8633726904943785  0.0847855425513013  0.6376719367898755
  0.9982688446632831  0.3197775639668902  0.5790048624708327
  1.0220442165192531  0.1713254988571289  0.9383355456868562
  0.8481235598129255  0.3908425080296404  0.8888679428037770
  0.4941724915687522  0.0567222864957613  0.6247936108107158
  0.3141905088943150  0.3647976898681055  0.0835066580231615
  0.4648371214753777  0.4613719125086448  0.3859329638210547
  0.3820545444711073  0.6732616676541713  0.8683373773309291
  0.1461595150668558  0.5867257764723356  0.1487646692905716
  0.3865177487028452  0.6790712293467384  0.3776259150163275
  0.1608052286544906  0.9171861565466722  0.8493618452592688
 -0.0113211457312301  0.8159469957348919  0.0813661167946434
  0.6284382178059014  0.8396438011421173  0.1417689485747810
  0.8108059485683327  0.8894604839692103  0.3587825408149707
  0.0940979470852268  0.9327943600720945  0.4083531190167959
  0.3447331989234813  0.8243560858418971  0.6283353182728820
  0.4989134602048864  0.9360155177147965  0.9044856523595222
  0.6615575081402780  0.6457633459820935  0.8748723964391615
  0.8414432059969097  0.6233936517267621  0.1472578942469721
  0.1930256391374048  0.6122960051857357  0.6061878621954448
  0.0324047404147613  0.7162826691776263  0.3997232982786886
  0.6238508206484313  0.8345913992718825  0.6280192559411796
  0.5252340456099237  0.5328883320509099  0.0864744454362761
  0.7001943886953303  0.6275821069835193  0.3771456637838786
  0.8782961420139452  0.5757202687956455  0.6412741662672280
  0.9875520132947264  0.8060252374411769  0.6156287070715315
  1.0320631899320512  0.6909879649047936  0.9159857545771093
  0.8185024786253435  0.8894078633998583  0.8625063088658377
  0.5141304716383051  0.5535575479482775  0.6026519693060640
  0.3515966973927048  0.8883859192697787  0.1649900578413140
  0.4791224950123659  0.9521008389246015  0.4017857718650062

 -0.10782955E-01 -0.55370398E-02  0.12486898E-01
 -0.10176597E-02 -0.51711898E-02  0.32686350E-02
 -0.46491719E-03 -0.43195545E-03  0.73779841E-02
 -0.21550220E-02 -0.78400334E-02  0.19402065E-02
 -0.15881815E-02  0.73569512E-02 -0.55236924E-02
  0.64241714E-03  0.44227241E-02 -0.37095542E-02
 -0.62031691E-02 -0.45425865E-02 -0.18907045E-03
  0.57090597E-03  0.64121064E-02 -0.47680828E-02
 -0.30345695E-02  0.47600299E-03  0.71248170E-04
  0.56590069E-02 -0.49520922E-02  0.26133173E-02
 -0.28598626E-02  0.44780725E-02  0.40946357E-02
 -0.12779128E-03  0.99694836E-02 -0.17083198E-02
 -0.76395736E-02 -0.38171759E-03 -0.13628549E-01
  0.66945978E-02 -0.26360805E-02 -0.38182586E-03
  0.50250369E-02 -0.22342009E-02 -0.53624587E-02
  0.18236272E-02 -0.13637353E-02  0.22483667E-02
  0.15122819E-02  0.68031492E-02  0.76568811E-02
 -0.10808161E-02  0.28958321E-02  0.11643582E-01
 -0.11933629E-02  0.63009652E-02 -0.10207484E-01
  0.57906474E-02 -0.16784073E-01 -0.50189551E-02
  0.46952085E-02  0.20324115E-03  0.11055173E-01
 -0.32197185E-02  0.49741373E-02 -0.35311782E-02
  0.29176302E-02 -0.61580469E-02 -0.47582437E-02
 -0.53523452E-02 -0.18312341E-02 -0.99457021E-02
  0.44744732E-03  0.65098136E-02  0.13751039E-03
 -0.90653234E-02  0.60340662E-02  0.11246037E-02
  0.54583755E-02 -0.17191369E-02  0.12611301E-01
 -0.28380184E-02  0.17152441E-02 -0.64067870E-02
  0.74435005E-02 -0.34437701E-02 -0.23819328E-02
 -0.69587983E-02  0.65079396E-02 -0.15825976E-01
 -0.12597013E-02  0.33488772E-02 -0.62235644E-02
 -0.78895962E-02  0.12110612E-01  0.88974498E-02
  0.93294181E-02 -0.56968068E-02  0.21443031E-02
  0.39832927E-02  0.68654792E-02  0.35736862E-02
 -0.40668784E-02  0.10310280E-01  0.95457831E-02
 -0.10536149E-01 -0.20514840E-03 -0.27134760E-02
  0.42035919E-02 -0.39503512E-02  0.63913893E-02
  0.11711973E-01 -0.13912253E-02 -0.72150795E-02
 -0.22297363E-02  0.14545989E-02 -0.28343455E-02
  0.15620762E-01 -0.80870296E-02  0.78815494E-02
 -0.11243982E-01 -0.78960285E-02 -0.45823767E-02
 -0.27899550E-02 -0.44323720E-02 -0.91450714E-02
 -0.60235459E-02 -0.15004362E-02 -0.12571618E-02
  0.11225251E-02 -0.45353138E-02  0.17537576E-02
 -0.51125355E-02 -0.82789576E-02 -0.45536589E-02
 -0.30325385E-02 -0.61279572E-02  0.72534554E-02
 -0.95840689E-02 -0.85847291E-02  0.76011918E-02
 -0.94698942E-02 -0.27071198E-02 -0.71707438E-02
 -0.40755870E-02 -0.65133280E-02 -0.76996038E-02
  0.83292771E-02 -0.72536335E-02 -0.36817672E-02
 -0.10615923E-03  0.39223645E-02  0.19117798E-02
 -0.30997143E-02  0.38316068E-02  0.80826787E-02
 -0.11272355E-03 -0.87978181E-02 -0.10249256E-02
  0.10352470E-01  0.25242649E-02  0.95355842E-02
 -0.11963977E-02  0.19363024E-02  0.29195447E-02
  0.39110974E-02  0.56240258E-02  0.30228859E-02
 -0.82674104E-02  0.11256151E-01  0.63875325E-02
 -0.44292862E-03 -0.20819434E-02 -0.19683514E-02
  0.11304345E-01 -0.49335508E-02  0.46713061E-03
  0.59364213E-02  0.87213013E-02 -0.64316077E-02
  0.40305598E-02 -0.39281955E-02 -0.13422479E-01
  0.71641295E-02 -0.42915940E-02  0.10111814E-02
 -0.64752186E-02  0.49010273E-02 -0.30292760E-03
  0.23612207E-02 -0.49743217E-02  0.57101282E-02
  0.18005663E-03 -0.48111193E-02 -0.42194350E-03
 -0.39476238E-02 -0.40892263E-02 -0.84050222E-02
 -0.26491067E-03  0.33126521E-02  0.15858291E-02
  0.47444188E-02  0.55465428E-02 -0.29670488E-02
  0.21422049E-02 -0.10155169E-01 -0.39280082E-02
 -0.54034466E-02  0.35829628E-02  0.82738358E-02
  0.12584195E-01 -0.21382358E-03  0.63774526E-02
  0.41537792E-02 -0.52102386E-02  0.46521769E-03
  0.19311894E-02 -0.70550208E-03  0.95119257E-02
 -0.85795504E-02 -0.10520175E-02 -0.11698529E-01
 -0.43555686E-02 -0.52739601E-02  0.54629505E-02
  0.26667873E-02  0.52405102E-02  0.46505509E-02
  0.43332925E-02  0.10920774E-02 -0.88118667E-02
  0.41341225E-02  0.53762921E-02 -0.30817162E-02
  0.92082373E-03 -0.11904188E-02  0.95326292E-02
  0.29890957E-02  0.57173392E-02  0.73921760E-03
  0.49268019E-02 -0.38251702E-02 -0.20382619E-02
 -0.89563019E-02  0.46588805E-02 -0.28597527E-02
 -0.16319680E-02  0.10633310E-02  0.15115667E-02
 -0.24345991E-02 -0.39962350E-02  0.37361171E-02
  0.72083190E-03  0.19936718E-02 -0.26764811E-02
 -0.52685707E-02 -0.29231342E-02  0.62141700E-02
 -0.39816057E-02  0.54997668E-02  0.86068789E-04
  0.80996561E-02  0.30012650E-02  0.46230429E-02
 -0.14563808E-02 -0.38206999E-02 -0.90231019E-03
 -0.29788679E-02  0.99070854E-02 -0.99025064E-02
 -0.93732837E-03  0.27519133E-02 -0.84094579E-03
 -0.50742194E-03  0.46883384E-02 -0.98468287E-03
  0.22511112E-02  0.53397259E-02 -0.10144024E-01
  0.25390899E-02 -0.21893831E-02 -0.29862779E-04
 -0.31675552E-02  0.39942529E-02  0.13625488E-02
  0.11976864E-02  0.56718241E-02  0.32683632E-02
  0.27777797E-03  0.72850428E-03 -0.45200651E-02
  0.30743896E-03 -0.85458723E-02  0.98880714E-03
 -0.14444960E-02 -0.49721070E-03  0.43552840E-02
  0.54318120E-03  0.62863219E-03  0.24830928E-02
  0.18289655E-02 -0.46087643E-02 -0.10870024E-02
 -0.28551092E-02  0.30650294E-02 -0.34948866E-02
 -0.97521290E-02  0.46869784E-02  0.15208474E-02
  0.91000493E-03 -0.39837348E-02 -0.24693936E-02
 -0.33487927E-02  0.49874579E-02  0.85162962E-03
  0.66913861E-02 -0.89438823E-02 -0.22458676E-02
 -0.53751566E-02  0.90742123E-02  0.42386771E-02
  0.28563881E-02 -0.95829407E-03 -0.50997590E-03
  0.74128734E-02 -0.16195707E-02  0.52651423E-02
 -0.55378180E-02  0.17238366E-02  0.60560736E-02
 -0.20495738E-02 -0.42987705E-02 -0.90935917E-03
  0.96412353E-02 -0.65562733E-02 -0.79666141E-02

           1
   2.0000000000000000     
 -0.57303184E+00 -0.43386444E-02 -0.46286174E-02 -0.56854821E+00
  0.98201509E+00  0.37123757E-01  0.81858097E+00
  0.74515813E+00  0.49376886E+00  0.22736668E-01
  0.81332864E+00  0.27361102E+00  0.74873226E+00
  0.75985217E+00  0.46999850E+00  0.50744674E+00
  0.90444944E+00  0.60340737E-01  0.33607621E+00
  0.24039218E+00  0.28519003E+00  0.50384444E+00
  0.78729861E+00  0.26451446E+00  0.23616831E+00
  0.23562272E+00  0.74722579E-01  0.40930899E+00
  0.68332679E+00  0.27051085E+00  0.97985554E+00
  0.50955602E+00  0.21659735E+00  0.71324128E+00
  0.20127484E+00  0.23274180E+00  0.17827546E-01
  0.23164637E+00  0.27409463E-01  0.10955071E-01
  0.76541497E+00  0.21072003E+00  0.53086026E+00
  0.19392255E+00  0.26944329E+00  0.25403948E+00
  0.99456536E+00  0.46343936E+00  0.19960533E+00
  0.59215866E+00  0.28951112E+00  0.37249102E+00
  0.35356118E+00  0.52293480E+00  0.74371834E+00
  0.63013174E-01  0.45410664E+00  0.65809640E+00
  0.32400829E+00  0.45926492E+00  0.22246845E+00
  0.21793546E+00  0.19624078E+00  0.75229785E+00
  0.48962647E+00  0.21008960E+00  0.19748452E+00
  0.66007598E+00  0.97619543E+00  0.74738258E+00
  0.32868287E+00  0.33411584E+00  0.86746341E+00
  0.67304659E+00  0.24677723E-01  0.26578216E+00
  0.98118246E+00  0.52471221E+00  0.89357995E+00
  0.76075287E+00  0.23287535E-01  0.99301765E+00
  0.79690300E+00  0.74755429E+00  0.75774674E+00
  0.78287951E+00  0.97339219E+00  0.54416006E+00
  0.91806485E+00  0.59895414E+00  0.34242654E+00
  0.22572976E+00  0.79683224E+00  0.43818242E+00
  0.82950968E+00  0.76960232E+00  0.23995910E+00
  0.25373939E+00  0.51936433E+00  0.39446264E+00
  0.52232484E+00  0.80815870E+00  0.79449047E+00
  0.40601082E+00  0.68438491E+00  0.58348995E+00
  0.31651421E+00  0.71634771E+00  0.20226993E+00
  0.23035112E+00  0.52788958E+00  0.97373759E+00
  0.68752198E+00  0.66988873E+00  0.55057670E+00
  0.60619833E+00  0.66399103E+00  0.19181927E+00
  0.10219369E+00  0.88166165E+00  0.22918878E+00
  0.53409566E+00  0.79482994E+00  0.33913252E+00
  0.31268897E+00  0.99572722E+00  0.72280125E+00
  0.13851741E+00  0.91111882E+00  0.60504278E+00
  0.36625997E+00  0.18104255E-01  0.25006774E+00
  0.19195758E+00  0.69625862E+00  0.73862465E+00
  0.74068628E+00  0.75244375E+00  0.99299921E+00
  0.65323419E+00  0.50339092E+00  0.74004913E+00
  0.31788866E+00  0.80592192E+00  0.98784736E+00
  0.67423296E+00  0.45950207E+00  0.23244439E+00
  0.99085769E+00  0.15375389E+00  0.98925037E-01
  0.99253449E+00  0.15997842E+00  0.56098719E+00
  0.49215469E+00  0.10106212E+00  0.43951415E+00
  0.46913519E+00  0.41108707E+00  0.55852729E+00
  0.50266550E+00  0.76966846E-01  0.94272329E+00
  0.48455429E+00  0.40013160E+00  0.44438236E-01
  0.99302346E+00  0.33405424E+00  0.41401924E+00
  0.36544510E-02  0.31726909E+00  0.93163581E+00
  0.99421842E+00  0.67418806E+00  0.83069800E-01
  0.21935158E-01  0.66405037E+00  0.56788249E+00
  0.53331409E+00  0.59110478E+00  0.42852356E+00
  0.47115001E+00  0.90039827E+00  0.56065018E+00
  0.51667425E+00  0.58681983E+00  0.93141560E+00
  0.49436885E+00  0.91449458E+00  0.81806433E-01
  0.95932658E+00  0.83484798E+00  0.44442235E+00
  0.10609507E-01  0.84014287E+00  0.90484426E+00
  0.34901047E+00  0.15889454E+00  0.92201548E+00
  0.12824613E+00  0.66546235E-01  0.17141619E+00
  0.36913532E+00  0.19389787E+00  0.38436060E+00
  0.13958079E+00  0.40141389E+00  0.84943739E+00
  0.13210246E-01  0.30386277E+00  0.99214159E-01
  0.63052121E+00  0.34889427E+00  0.12970270E+00
  0.83253973E+00  0.39483100E+00  0.37195334E+00
  0.14611880E+00  0.39252900E+00  0.35284433E+00
  0.34350300E+00  0.36316727E+00  0.65939239E+00
  0.50999908E+00  0.43400061E+00  0.87908817E+00
  0.66414984E+00  0.15349562E+00  0.84594348E+00
  0.83073807E+00  0.10021902E+00  0.14406538E+00
  0.17102763E+00  0.11353087E+00  0.60404753E+00
  0.98277541E+00  0.18463612E+00  0.39897835E+00
  0.62659117E+00  0.33760455E+00  0.58717465E+00
  0.52084943E+00  0.79203279E-01  0.10778100E+00
  0.64701517E+00  0.13911106E+00  0.37381078E+00
  0.86190237E+00  0.85401580E-01  0.63714796E+00
  0.99800093E+00  0.31991793E+00  0.57920056E+00
  0.21644539E-01  0.17079694E+00  0.93897192E+00
  0.84824190E+00  0.39110629E+00  0.88843209E+00
  0.49330757E+00  0.56335283E-01  0.62576626E+00
  0.31353687E+00  0.36552454E+00  0.83392457E-01
  0.46616681E+00  0.46176806E+00  0.38653729E+00
  0.38181546E+00  0.67275682E+00  0.86829397E+00
  0.14567049E+00  0.58803619E+00  0.14709376E+00
  0.38636387E+00  0.67943502E+00  0.37743999E+00
  0.16072193E+00  0.91780588E+00  0.84911036E+00
  0.98904841E+00  0.81665381E+00  0.79765278E-01
  0.62885505E+00  0.83935445E+00  0.14181505E+00
  0.81028594E+00  0.88998822E+00  0.35888899E+00
  0.94294566E-01  0.93354360E+00  0.40869855E+00
  0.34477880E+00  0.82445286E+00  0.62766004E+00
  0.49896393E+00  0.93488597E+00  0.90482664E+00
  0.66132037E+00  0.64569716E+00  0.87551833E+00
  0.84153238E+00  0.62347646E+00  0.14760515E+00
  0.19332589E+00  0.61168702E+00  0.60613571E+00
  0.31936030E-01  0.71668813E+00  0.39914353E+00
  0.62224986E+00  0.83521067E+00  0.62813280E+00
  0.52538344E+00  0.53236210E+00  0.86206506E-01
  0.69964463E+00  0.62824117E+00  0.37715480E+00
  0.87939464E+00  0.57453847E+00  0.64115309E+00
  0.98666960E+00  0.80722404E+00  0.61603709E+00
  0.32532111E-01  0.69086137E+00  0.91593354E+00
  0.81971942E+00  0.88919324E+00  0.86331066E+00
  0.51322135E+00  0.55378471E+00  0.60349450E+00
  0.35126023E+00  0.88781789E+00  0.16495665E+00
  0.48070525E+00  0.95123522E+00  0.40077628E+00
  0.00000000E+00  0.00000000E+00  0.00000000E+00
  0.00000000E+00  0.00000000E+00  0.00000000E+00
  0.00000000E+00  0.00000000E+00  0.00000000E+00
  0.00000000E+00  0.00000000E+00  0.00000000E+00
  0.00000000E+00  0.00000000E+00  0.00000000E+00
  0.00000000E+00  0.00000000E+00  0.00000000E+00
  0.00000000E+00  0.00000000E+00  0.00000000E+00
  0.00000000E+00  0.00000000E+00  0.00000000E+00
  0.00000000E+00  0.00000000E+00  0.00000000E+00
  0.00000000E+00  0.00000000E+00  0.00000000E+00
  0.00000000E+00  0.00000000E+00  0.00000000E+00
  0.00000000E+00  0.00000000E+00  0.00000000E+00
  0.00000000E+00  0.00000000E+00  0.00000000E+00
  0.00000000E+00  0.00000000E+00  0.00000000E+00
  0.00000000E+00  0.00000000E+00  0.00000000E+00
  0.00000000E+00  0.00000000E+00  0.00000000E+00
  0.00000000E+00  0.00000000E+00  0.00000000E+00
  0.00000000E+00  0.00000000E+00  0.00000000E+00
  0.00000000E+00  0.00000000E+00  0.00000000E+00
  0.00000000E+00  0.00000000E+00  0.00000000E+00
  0.00000000E+00  0.00000000E+00  0.00000000E+00
  0.00000000E+00  0.00000000E+00  0.00000000E+00
  0.00000000E+00  0.00000000E+00  0.00000000E+00
  0.00000000E+00  0.00000000E+00  0.00000000E+00
  0.00000000E+00  0.00000000E+00  0.00000000E+00
  0.00000000E+00  0.00000000E+00  0.00000000E+00
  0.00000000E+00  0.00000000E+00  0.00000000E+00
  0.00000000E+00  0.00000000E+00  0.00000000E+00
  0.00000000E+00  0.00000000E+00  0.00000000E+00
  0.00000000E+00  0.00000000E+00  0.00000000E+00
  0.00000000E+00  0.00000000E+00  0.00000000E+00
  0.00000000E+00  0.00000000E+00  0.00000000E+00
  0.00000000E+00  0.00000000E+00  0.00000000E+00
  0.00000000E+00  0.00000000E+00  0.00000000E+00
  0.00000000E+00  0.00000000E+00  0.00000000E+00
  0.00000000E+00  0.00000000E+00  0.00000000E+00
  0.00000000E+00  0.00000000E+00  0.00000000E+00
  0.00000000E+00  0.00000000E+00  0.00000000E+00
  0.00000000E+00  0.00000000E+00  0.00000000E+00
  0.00000000E+00  0.00000000E+00  0.00000000E+00
  0.00000000E+00  0.00000000E+00  0.00000000E+00
  0.00000000E+00  0.00000000E+00  0.00000000E+00
  0.00000000E+00  0.00000000E+00  0.00000000E+00
  0.00000000E+00  0.00000000E+00  0.00000000E+00
  0.00000000E+00  0.00000000E+00  0.00000000E+00
  0.00000000E+00  0.00000000E+00  0.00000000E+00
  0.00000000E+00  0.00000000E+00  0.00000000E+00
  0.00000000E+00  0.00000000E+00  0.00000000E+00
  0.00000000E+00  0.00000000E+00  0.00000000E+00
  0.00000000E+00  0.00000000E+00  0.00000000E+00
  0.00000000E+00  0.00000000E+00  0.00000000E+00
  0.00000000E+00  0.00000000E+00  0.00000000E+00
  0.00000000E+00  0.00000000E+00  0.00000000E+00
  0.00000000E+00  0.00000000E+00  0.00000000E+00
  0.00000000E+00  0.00000000E+00  0.00000000E+00
  0.00000000E+00  0.00000000E+00  0.00000000E+00
  0.00000000E+00  0.00000000E+00  0.00000000E+00
  0.00000000E+00  0.00000000E+00  0.00000000E+00
  0.00000000E+00  0.00000000E+00  0.00000000E+00
  0.00000000E+00  0.00000000E+00  0.00000000E+00
  0.00000000E+00  0.00000000E+00  0.00000000E+00
  0.00000000E+00  0.00000000E+00  0.00000000E+00
  0.00000000E+00  0.00000000E+00  0.00000000E+00
  0.00000000E+00  0.00000000E+00  0.00000000E+00
  0.00000000E+00  0.00000000E+00  0.00000000E+00
  0.00000000E+00  0.00000000E+00  0.00000000E+00
  0.00000000E+00  0.00000000E+00  0.00000000E+00
  0.00000000E+00  0.00000000E+00  0.00000000E+00
  0.00000000E+00  0.00000000E+00  0.00000000E+00
  0.00000000E+00  0.00000000E+00  0.00000000E+00
  0.00000000E+00  0.00000000E+00  0.00000000E+00
  0.00000000E+00  0.00000000E+00  0.00000000E+00
  0.00000000E+00  0.00000000E+00  0.00000000E+00
  0.00000000E+00  0.00000000E+00  0.00000000E+00
  0.00000000E+00  0.00000000E+00  0.00000000E+00
  0.00000000E+00  0.00000000E+00  0.00000000E+00
  0.00000000E+00  0.00000000E+00  0.00000000E+00
  0.00000000E+00  0.00000000E+00  0.00000000E+00
  0.00000000E+00  0.00000000E+00  0.00000000E+00
  0.00000000E+00  0.00000000E+00  0.00000000E+00
  0.00000000E+00  0.00000000E+00  0.00000000E+00
  0.00000000E+00  0.00000000E+00  0.00000000E+00
  0.00000000E+00  0.00000000E+00  0.00000000E+00
  0.00000000E+00  0.00000000E+00  0.00000000E+00
  0.00000000E+00  0.00000000E+00  0.00000000E+00
  0.00000000E+00  0.00000000E+00  0.00000000E+00
  0.00000000E+00  0.00000000E+00  0.00000000E+00
  0.00000000E+00  0.00000000E+00  0.00000000E+00
  0.00000000E+00  0.00000000E+00  0.00000000E+00
  0.00000000E+00  0.00000000E+00  0.00000000E+00
  0.00000000E+00  0.00000000E+00  0.00000000E+00
  0.00000000E+00  0.00000000E+00  0.00000000E+00
  0.00000000E+00  0.00000000E+00  0.00000000E+00
  0.00000000E+00  0.00000000E+00  0.00000000E+00
  0.00000000E+00  0.00000000E+00  0.00000000E+00
  0.00000000E+00  0.00000000E+00  0.00000000E+00
  0.00000000E+00  0.00000000E+00  0.00000000E+00
  0.00000000E+00  0.00000000E+00  0.00000000E+00
  0.00000000E+00  0.00000000E+00  0.00000000E+00
  0.00000000E+00  0.00000000E+00  0.00000000E+00
  0.00000000E+00  0.00000000E+00  0.00000000E+00
  0.00000000E+00  0.00000000E+00  0.00000000E+00
  0.00000000E+00  0.00000000E+00  0.00000000E+00
  0.00000000E+00  0.00000000E+00  0.00000000E+00
  0.00000000E+00  0.00000000E+00  0.00000000E+00
  0.00000000E+00  0.00000000E+00  0.00000000E+00
  0.00000000E+00  0.00000000E+00  0.00000000E+00
  0.00000000E+00  0.00000000E+00  0.00000000E+00
  0.00000000E+00  0.00000000E+00  0.00000000E+00
  0.00000000E+00  0.00000000E+00  0.00000000E+00
  0.00000000E+00  0.00000000E+00  0.00000000E+00
  0.00000000E+00  0.00000000E+00  0.00000000E+00
  0.00000000E+00  0.00000000E+00  0.00000000E+00
  0.00000000E+00  0.00000000E+00  0.00000000E+00
  0.00000000E+00  0.00000000E+00  0.00000000E+00
  0.00000000E+00  0.00000000E+00  0.00000000E+00
  0.00000000E+00  0.00000000E+00  0.00000000E+00
  0.00000000E+00  0.00000000E+00  0.00000000E+00
  0.00000000E+00  0.00000000E+00  0.00000000E+00
  0.00000000E+00  0.00000000E+00  0.00000000E+00
  0.00000000E+00  0.00000000E+00  0.00000000E+00
  0.00000000E+00  0.00000000E+00  0.00000000E+00
  0.00000000E+00  0.00000000E+00  0.00000000E+00
  0.00000000E+00  0.00000000E+00  0.00000000E+00
  0.00000000E+00  0.00000000E+00  0.00000000E+00
  0.00000000E+00  0.00000000E+00  0.00000000E+00
  0.00000000E+00  0.00000000E+00  0.00000000E+00
  0.00000000E+00  0.00000000E+00  0.00000000E+00
  0.00000000E+00  0.00000000E+00  0.00000000E+00
  0.00000000E+00  0.00000000E+00  0.00000000E+00
  0.00000000E+00  0.00000000E+00  0.00000000E+00
  0.00000000E+00  0.00000000E+00  0.00000000E+00
  0.00000000E+00  0.00000000E+00  0.00000000E+00
  0.00000000E+00  0.00000000E+00  0.00000000E+00
  0.00000000E+00  0.00000000E+00  0.00000000E+00
  0.00000000E+00  0.00000000E+00  0.00000000E+00
  0.00000000E+00  0.00000000E+00  0.00000000E+00
  0.00000000E+00  0.00000000E+00  0.00000000E+00
  0.00000000E+00  0.00000000E+00  0.00000000E+00
  0.00000000E+00  0.00000000E+00  0.00000000E+00
  0.00000000E+00  0.00000000E+00  0.00000000E+00
  0.00000000E+00  0.00000000E+00  0.00000000E+00
  0.00000000E+00  0.00000000E+00  0.00000000E+00
  0.00000000E+00  0.00000000E+00  0.00000000E+00
  0.00000000E+00  0.00000000E+00  0.00000000E+00
  0.00000000E+00  0.00000000E+00  0.00000000E+00
  0.00000000E+00  0.00000000E+00  0.00000000E+00
  0.00000000E+00  0.00000000E+00  0.00000000E+00
  0.00000000E+00  0.00000000E+00  0.00000000E+00
  0.00000000E+00  0.00000000E+00  0.00000000E+00
  0.00000000E+00  0.00000000E+00  0.00000000E+00
  0.00000000E+00  0.00000000E+00  0.00000000E+00
  0.00000000E+00  0.00000000E+00  0.00000000E+00
  0.00000000E+00  0.00000000E+00  0.00000000E+00
  0.00000000E+00  0.00000000E+00  0.00000000E+00
  0.00000000E+00  0.00000000E+00  0.00000000E+00
  0.00000000E+00  0.00000000E+00  0.00000000E+00
  0.00000000E+00  0.00000000E+00  0.00000000E+00
  0.00000000E+00  0.00000000E+00  0.00000000E+00
  0.00000000E+00  0.00000000E+00  0.00000000E+00
  0.00000000E+00  0.00000000E+00  0.00000000E+00
  0.00000000E+00  0.00000000E+00  0.00000000E+00
  0.00000000E+00  0.00000000E+00  0.00000000E+00
  0.00000000E+00  0.00000000E+00  0.00000000E+00
  0.00000000E+00  0.00000000E+00  0.00000000E+00
  0.00000000E+00  0.00000000E+00  0.00000000E+00
  0.00000000E+00  0.00000000E+00  0.00000000E+00
  0.00000000E+00  0.00000000E+00  0.00000000E+00
  0.00000000E+00  0.00000000E+00  0.00000000E+00
  0.00000000E+00  0.00000000E+00  0.00000000E+00
  0.00000000E+00  0.00000000E+00  0.00000000E+00
  0.00000000E+00  0.00000000E+00  0.00000000E+00
  0.00000000E+00  0.00000000E+00  0.00000000E+00
  0.00000000E+00  0.00000000E+00  0.00000000E+00
  0.00000000E+00  0.00000000E+00  0.00000000E+00
  0.00000000E+00  0.00000000E+00  0.00000000E+00
  0.00000000E+00  0.00000000E+00  0.00000000E+00
  0.00000000E+00  0.00000000E+00  0.00000000E+00
  0.00000000E+00  0.00000000E+00  0.00000000E+00
  0.00000000E+00  0.00000000E+00  0.00000000E+00
  0.00000000E+00  0.00000000E+00  0.00000000E+00
  0.00000000E+00  0.00000000E+00  0.00000000E+00
  0.00000000E+00  0.00000000E+00  0.00000000E+00
  0.00000000E+00  0.00000000E+00  0.00000000E+00
  0.00000000E+00  0.00000000E+00  0.00000000E+00
  0.00000000E+00  0.00000000E+00  0.00000000E+00
  0.00000000E+00  0.00000000E+00  0.00000000E+00
  0.00000000E+00  0.00000000E+00  0.00000000E+00
  0.00000000E+00  0.00000000E+00  0.00000000E+00
  0.00000000E+00  0.00000000E+00  0.00000000E+00
  0.00000000E+00  0.00000000E+00  0.00000000E+00
  0.00000000E+00  0.00000000E+00  0.00000000E+00
  0.00000000E+00  0.00000000E+00  0.00000000E+00
  0.00000000E+00  0.00000000E+00  0.00000000E+00
  0.00000000E+00  0.00000000E+00  0.00000000E+00
  0.00000000E+00  0.00000000E+00  0.00000000E+00
  0.00000000E+00  0.00000000E+00  0.00000000E+00
  0.00000000E+00  0.00000000E+00  0.00000000E+00
  0.00000000E+00  0.00000000E+00  0.00000000E+00
  0.00000000E+00  0.00000000E+00  0.00000000E+00
  0.00000000E+00  0.00000000E+00  0.00000000E+00
  0.00000000E+00  0.00000000E+00  0.00000000E+00
  0.00000000E+00  0.00000000E+00  0.00000000E+00
  0.00000000E+00  0.00000000E+00  0.00000000E+00
  0.00000000E+00  0.00000000E+00  0.00000000E+00
  0.00000000E+00  0.00000000E+00  0.00000000E+00
  0.00000000E+00  0.00000000E+00  0.00000000E+00
  0.00000000E+00  0.00000000E+00  0.00000000E+00
  0.00000000E+00  0.00000000E+00  0.00000000E+00
  0.00000000E+00  0.00000000E+00  0.00000000E+00
  0.00000000E+00  0.00000000E+00  0.00000000E+00
  0.00000000E+00  0.00000000E+00  0.00000000E+00
  0.00000000E+00  0.00000000E+00  0.00000000E+00
  0.00000000E+00  0.00000000E+00  0.00000000E+00
  0.00000000E+00  0.00000000E+00  0.00000000E+00
  0.00000000E+00  0.00000000E+00  0.00000000E+00
  0.00000000E+00  0.00000000E+00  0.00000000E+00
  0.00000000E+00  0.00000000E+00  0.00000000E+00
  0.00000000E+00  0.00000000E+00  0.00000000E+00
  0.00000000E+00  0.00000000E+00  0.00000000E+00
  0.00000000E+00  0.00000000E+00  0.00000000E+00
  0.00000000E+00  0.00000000E+00  0.00000000E+00
  0.00000000E+00  0.00000000E+00  0.00000000E+00
  0.00000000E+00  0.00000000E+00  0.00000000E+00
