Na24 Al8 S24                            
  1.0000000000
     12.1828203277415312     -0.0000000000000000      0.0000000000000007
     -0.0000000000000010     15.1349386410830835      2.3941278804312205
      0.0000000000000000      0.0113082934473333     13.7304524371335805
  Na  Al  S
  48  16  48
Direct
  0.9826682686377871  0.0410082905717076  0.8060758187370872
  0.7522404633150156  0.4975398326394027  0.0134970982172956
  0.8070840797108489  0.2673190984550600  0.7597158409044048
  0.7372710363907881  0.4595739258199776  0.5256450028473901
  0.9130063786728384  0.0551719504359933  0.3650815318568538
  0.2372710363907880  0.2904260741800224  0.4743549971526100
  0.8266369426750443  0.2520219671640839  0.2435505521780384
  0.2627289636092120  0.0404260741800224  0.4743549971526100
  0.7477595366849844  0.2475398326394027  0.0134970982172956
  0.4130063786728382  0.1948280495640067  0.6349184681431461
  0.2522404633150157  0.2524601673605973  0.9865029017827043
  0.2477595366849843  0.0024601673605973  0.9865029017827043
  0.7627289636092119  0.2095739258199776  0.5256450028473901
  0.1929159202891509  0.2326809015449399  0.2402841590955952
  0.0173317313622130  0.4589917094282924  0.1939241812629127
  0.5869936213271616  0.3051719504359933  0.3650815318568538
  0.3266369426750442  0.4979780328359161  0.7564494478219617
  0.0869936213271618  0.4448280495640067  0.6349184681431461
  0.3070840797108491  0.4826809015449400  0.2402841590955952
  0.1733630573249558  0.2479780328359160  0.7564494478219617
  0.4826682686377869  0.2089917094282925  0.1939241812629127
  0.6929159202891511  0.0173190984550601  0.7597158409044048
  0.5173317313622129  0.2910082905717076  0.8060758187370872
  0.6733630573249557  0.0020219671640839  0.2435505521780384
  0.9826682686377871  0.5410082905717075  0.8060758187370872
  0.7522404633150156  0.9975398326394027  0.0134970982172956
  0.8070840797108489  0.7673190984550600  0.7597158409044048
  0.7372710363907881  0.9595739258199776  0.5256450028473901
  0.9130063786728384  0.5551719504359933  0.3650815318568538
  0.2372710363907880  0.7904260741800224  0.4743549971526100
  0.8266369426750443  0.7520219671640840  0.2435505521780384
  0.2627289636092120  0.5404260741800224  0.4743549971526100
  0.7477595366849844  0.7475398326394027  0.0134970982172956
  0.4130063786728382  0.6948280495640067  0.6349184681431461
  0.2522404633150157  0.7524601673605973  0.9865029017827043
  0.2477595366849843  0.5024601673605973  0.9865029017827043
  0.7627289636092119  0.7095739258199776  0.5256450028473901
  0.1929159202891509  0.7326809015449399  0.2402841590955952
  0.0173317313622130  0.9589917094282925  0.1939241812629127
  0.5869936213271616  0.8051719504359933  0.3650815318568538
  0.3266369426750442  0.9979780328359160  0.7564494478219617
  0.0869936213271618  0.9448280495640067  0.6349184681431461
  0.3070840797108491  0.9826809015449400  0.2402841590955952
  0.1733630573249558  0.7479780328359160  0.7564494478219617
  0.4826682686377869  0.7089917094282925  0.1939241812629127
  0.6929159202891511  0.5173190984550601  0.7597158409044048
  0.5173317313622129  0.7910082905717075  0.8060758187370872
  0.6733630573249557  0.5020219671640840  0.2435505521780384
  0.0067626109413173  0.1629282153495893  0.0733305490984901
  0.0214489848084214  0.1600148325605069  0.5656039150852453
  0.5214489848084215  0.0899851674394932  0.4343960849147546
  0.4785510151915786  0.4100148325605068  0.5656039150852453
  0.5067626109413174  0.0870717846504108  0.9266694509015099
  0.4932373890586827  0.4129282153495892  0.0733305490984901
  0.9785510151915785  0.3399851674394932  0.4343960849147546
  0.9932373890586826  0.3370717846504108  0.9266694509015099
  0.0067626109413173  0.6629282153495892  0.0733305490984901
  0.0214489848084214  0.6600148325605069  0.5656039150852453
  0.5214489848084215  0.5899851674394931  0.4343960849147546
  0.4785510151915786  0.9100148325605069  0.5656039150852453
  0.5067626109413174  0.5870717846504108  0.9266694509015099
  0.4932373890586827  0.9129282153495892  0.0733305490984901
  0.9785510151915785  0.8399851674394931  0.4343960849147546
  0.9932373890586826  0.8370717846504108  0.9266694509015099
  0.3593825380642162  0.1547010213045972  0.8535399846036746
  0.1667712772377825  0.1013603897551347  0.1230847195988898
  0.3904178558755794  0.1895055668001848  0.3872716908825476
  0.1406174619357839  0.4047010213045972  0.8535399846036746
  0.0029240206290832  0.3091363282071451  0.0967124268129580
  0.6406174619357839  0.3452989786954028  0.1464600153963252
  0.8157815180915312  0.3807115747588099  0.3704838582480125
  0.1095821441244206  0.4395055668001849  0.3872716908825476
  0.3157815180915312  0.3692884252411901  0.6295161417519877
  0.5029240206290833  0.4408636717928549  0.9032875731870420
  0.6667712772377825  0.1486396102448653  0.8769152804011101
  0.8593825380642161  0.0952989786954029  0.1464600153963252
  0.1842184819084688  0.1192884252411902  0.6295161417519877
  0.0325867594767946  0.2051389711684853  0.3965161822424967
  0.6095821441244207  0.3104944331998151  0.6127283091174524
  0.4970759793709168  0.0591363282071451  0.0967124268129580
  0.6842184819084688  0.1307115747588098  0.3704838582480125
  0.8904178558755793  0.0604944331998152  0.6127283091174524
  0.9674132405232054  0.2948610288315147  0.6034838177575033
  0.9970759793709167  0.1908636717928549  0.9032875731870420
  0.8332287227622175  0.3986396102448653  0.8769152804011101
  0.5325867594767946  0.0448610288315147  0.6034838177575033
  0.3332287227622175  0.3513603897551347  0.1230847195988898
  0.4674132405232054  0.4551389711684853  0.3965161822424967
  0.3593825380642162  0.6547010213045972  0.8535399846036746
  0.1667712772377825  0.6013603897551347  0.1230847195988898
  0.3904178558755794  0.6895055668001848  0.3872716908825476
  0.1406174619357839  0.9047010213045972  0.8535399846036746
  0.0029240206290832  0.8091363282071451  0.0967124268129580
  0.6406174619357839  0.8452989786954028  0.1464600153963252
  0.8157815180915312  0.8807115747588099  0.3704838582480125
  0.1095821441244206  0.9395055668001848  0.3872716908825476
  0.3157815180915312  0.8692884252411901  0.6295161417519877
  0.5029240206290833  0.9408636717928549  0.9032875731870420
  0.6667712772377825  0.6486396102448653  0.8769152804011101
  0.8593825380642161  0.5952989786954028  0.1464600153963252
  0.1842184819084688  0.6192884252411901  0.6295161417519877
  0.0325867594767946  0.7051389711684853  0.3965161822424967
  0.6095821441244207  0.8104944331998152  0.6127283091174524
  0.4970759793709168  0.5591363282071451  0.0967124268129580
  0.6842184819084688  0.6307115747588099  0.3704838582480125
  0.8904178558755793  0.5604944331998152  0.6127283091174524
  0.9674132405232054  0.7948610288315147  0.6034838177575033
  0.9970759793709167  0.6908636717928549  0.9032875731870420
  0.8332287227622175  0.8986396102448653  0.8769152804011101
  0.5325867594767946  0.5448610288315147  0.6034838177575033
  0.3332287227622175  0.8513603897551347  0.1230847195988898
  0.4674132405232054  0.9551389711684853  0.3965161822424967
