Na40 Al8 S32
1.0
  12.0192999999999994    0.0000000000000000    0.0000000000000007
  -0.0000000000000004    7.0523600000000002    0.0000000000000004
   0.0000000000000000    0.0000000000000000   21.5605000000000011
Na Al S
40 8 32
direct
   0.3521000000000000    0.9080000000000000    0.5013000000000000 Na
   0.6478999999999999    0.4079999999999999    0.9987000000000000 Na
   0.1479000000000000    0.0920000000000000    0.0013000000000001 Na
   0.1479000000000000    0.4079999999999999    0.5013000000000000 Na
   0.3521000000000000    0.5920000000000000    0.0013000000000001 Na
   0.6478999999999999    0.0920000000000000    0.4987000000000000 Na
   0.8521000000000001    0.5920000000000000    0.4987000000000000 Na
   0.8521000000000001    0.9080000000000000    0.9987000000000000 Na
   0.2869000000000000    0.5531000000000000    0.3658000000000000 Na
   0.7131000000000001    0.0531000000000001    0.1342000000000000 Na
   0.2131000000000000    0.4469000000000000    0.8658000000000000 Na
   0.2131000000000000    0.0531000000000001    0.3658000000000000 Na
   0.2869000000000000    0.9469000000000000    0.8658000000000000 Na
   0.7131000000000001    0.4469000000000000    0.6342000000000000 Na
   0.7868999999999999    0.9469000000000000    0.6342000000000000 Na
   0.7868999999999999    0.5531000000000000    0.1342000000000000 Na
   0.5579000000000000    0.5658000000000000    0.4332000000000000 Na
   0.4421000000000000    0.0657999999999999    0.0668000000000000 Na
   0.9421000000000000    0.4342000000000000    0.9332000000000000 Na
   0.9421000000000000    0.0657999999999999    0.4332000000000000 Na
   0.5579000000000000    0.9342000000000000    0.9332000000000000 Na
   0.4421000000000000    0.4342000000000000    0.5668000000000000 Na
   0.0579000000000001    0.9342000000000000    0.5668000000000000 Na
   0.0579000000000001    0.5658000000000000    0.0668000000000000 Na
   0.5863000000000000    0.3809000000000000    0.2501000000000000 Na
   0.4137000000000000    0.8809000000000000    0.2499000000000000 Na
   0.9137000000000000    0.6191000000000000    0.7501000000000000 Na
   0.9137000000000000    0.8809000000000000    0.2501000000000000 Na
   0.5863000000000000    0.1191000000000000    0.7501000000000000 Na
   0.4137000000000000    0.6191000000000000    0.7499000000000000 Na
   0.0863000000000000    0.1191000000000000    0.7499000000000000 Na
   0.0863000000000000    0.3809000000000000    0.2499000000000000 Na
   0.8373000000000000    0.1077000000000000    0.8294000000000000 Na
   0.1627000000000000    0.6077000000000000    0.6706000000000000 Na
   0.6627000000000000    0.8923000000000000    0.3294000000000001 Na
   0.6627000000000000    0.6077000000000000    0.8294000000000000 Na
   0.8373000000000000    0.3923000000000000    0.3294000000000001 Na
   0.1627000000000000    0.8923000000000000    0.1706000000000000 Na
   0.3372999999999999    0.3923000000000000    0.1706000000000000 Na
   0.3372999999999999    0.1077000000000000    0.6706000000000000 Na
   0.0399000000000000    0.8312000000000000    0.8737000000000000 Al
   0.9601000000000000    0.3311999999999999    0.6263000000000000 Al
   0.4601000000000000    0.1688000000000000    0.3736999999999999 Al
   0.4601000000000000    0.3311999999999999    0.8737000000000000 Al
   0.0399000000000000    0.6688000000000000    0.3736999999999999 Al
   0.9601000000000000    0.1688000000000000    0.1263000000000000 Al
   0.5399000000000000    0.6688000000000000    0.1263000000000000 Al
   0.5399000000000000    0.8312000000000000    0.6263000000000000 Al
   0.3713000000000000    0.2046000000000000    0.9571000000000000 S
   0.6287000000000000    0.7046000000000000    0.5429000000000000 S
   0.1287000000000000    0.7954000000000000    0.4571000000000001 S
   0.1287000000000000    0.7046000000000000    0.9571000000000000 S
   0.3713000000000000    0.2954000000000000    0.4571000000000001 S
   0.6287000000000000    0.7954000000000000    0.0429000000000000 S
   0.8713000000000000    0.2954000000000000    0.0429000000000000 S
   0.8713000000000000    0.2046000000000000    0.5429000000000000 S
   0.4477000000000000    0.8520000000000000    0.3783000000000000 S
   0.5523000000000000    0.3519999999999999    0.1217000000000000 S
   0.0523000000000000    0.1480000000000000    0.8783000000000001 S
   0.0523000000000000    0.3519999999999999    0.3783000000000000 S
   0.4477000000000000    0.6480000000000000    0.8783000000000001 S
   0.5523000000000000    0.1480000000000000    0.6216999999999999 S
   0.9477000000000000    0.6480000000000000    0.6216999999999999 S
   0.9477000000000000    0.8520000000000000    0.1217000000000000 S
   0.1402000000000000    0.2426000000000000    0.6222000000000000 S
   0.8598000000000000    0.7426000000000000    0.8778000000000000 S
   0.3598000000000000    0.7574000000000000    0.1221999999999999 S
   0.3598000000000000    0.7426000000000000    0.6222000000000000 S
   0.1402000000000000    0.2574000000000000    0.1221999999999999 S
   0.8598000000000000    0.7574000000000000    0.3778000000000000 S
   0.6402000000000000    0.2574000000000000    0.3778000000000000 S
   0.6402000000000000    0.2426000000000000    0.8778000000000000 S
   0.6317000000000000    0.7610000000000000    0.2113000000000000 S
   0.3683000000000000    0.2610000000000001    0.2887000000000000 S
   0.8683000000000000    0.2390000000000000    0.7113000000000000 S
   0.8683000000000000    0.2610000000000001    0.2113000000000000 S
   0.6317000000000000    0.7390000000000000    0.7113000000000000 S
   0.3683000000000000    0.2390000000000000    0.7887000000000000 S
   0.1316999999999999    0.7390000000000000    0.7887000000000000 S
   0.1316999999999999    0.7610000000000000    0.2887000000000000 S
