NMC-811 Li=0.25 (3/12 Li)
1.0
      5.7400000000      0.0000000000      0.0000000000
     -2.8700000000      4.9709858177      0.0000000000
      0.0000000000      0.0000000000     14.2020000000
  Li  Ni  Mn  Co  O
  3  10  1  1  24
Direct
      0.0000000000      0.9969990000      0.9985000000
      0.0000000000      0.1668610000      0.3331390000
      0.0000000000      0.3361020000      0.6680510000
      0.0000000000      0.0001530000      0.0000760000
      0.0000000000      0.1667410000      0.3332590000
      0.0000000000      0.0000000000      0.5000000000
      0.0000000000      0.4999240000      0.4998470000
      0.0000000000      0.4999240000      0.0000760000
      0.0000000000      0.3330870000      0.6665440000
      0.0000000000      0.8334560000      0.6665440000
      0.0000000000      0.8334560000      0.1669130000
      0.0000000000      0.1667410000      0.8334810000
      0.0000000000      0.6665190000      0.3332590000
      0.0000000000      0.3333330000      0.1666670000
      0.0000000000      0.6666670000      0.8333330000
      0.0000000000      0.9870350000      0.9935170000
      0.0000000000      0.0169750000      0.0084870000
      0.0000000000      0.3333330000      0.1666670000
      0.0000000000      0.3333330000      0.1666670000
      0.0000000000      0.1754240000      0.3245760000
      0.0000000000      0.1642650000      0.3357350000
      0.0000000000      0.0000000000      0.5000000000
      0.0000000000      0.0000000000      0.5000000000
      0.0000000000      0.5064830000      0.5129650000
      0.0000000000      0.4915130000      0.4830250000
      0.0000000000      0.5064830000      0.9935170000
      0.0000000000      0.4915130000      0.0084870000
      0.0000000000      0.3286080000      0.6643040000
      0.0000000000      0.3474490000      0.6737240000
      0.0000000000      0.8356960000      0.6643040000
      0.0000000000      0.8262760000      0.6737240000
      0.0000000000      0.8356960000      0.1713920000
      0.0000000000      0.8262760000      0.1525510000
      0.0000000000      0.1754240000      0.8508480000
      0.0000000000      0.1642650000      0.8285290000
      0.0000000000      0.6666670000      0.8333330000
      0.0000000000      0.6666670000      0.8333330000
      0.0000000000      0.6491520000      0.3245760000
      0.0000000000      0.6714710000      0.3357350000
