mp-560538_Na3AlS3 NEB image 04          
   1.0000000000000000     
    12.1828203277415312    0.0000000000000000    0.0000000000000007
    -0.0000000000000005    7.5674693205415418    1.1970639402156102
     0.0000000000000000    0.0113082934473333   13.7304524371335805
   Na   Al   S 
    23     8    24
Direct
  0.0522185037640384  0.9537762597998167  0.6919709183411271
  0.7522404633150188  0.9950796652788085  0.0134970982172931
  0.8070840797108474  0.5346381969101230  0.7597158409044056
  0.7372710363907871  0.9191478516399556  0.5256450028473907
  0.9130063786728400  0.1103439008719889  0.3650815318568519
  0.2372710363907871  0.5808521483600444  0.4743549971526093
  0.8266369426750444  0.5040439343281662  0.2435505521780357
  0.2627289636092129  0.0808521483600444  0.4743549971526093
  0.7477595366849812  0.4950796652788085  0.0134970982172931
  0.4130063786728400  0.3896560991280111  0.6349184681431481
  0.2522404633150188  0.5049203347211915  0.9865029017827069
  0.2477595366849812  0.0049203347211915  0.9865029017827069
  0.7627289636092129  0.4191478516399556  0.5256450028473907
  0.1929159202891526  0.4653618030898770  0.2402841590955944
  0.0173317313622121  0.9179834188565863  0.1939241812629149
  0.5869936213271600  0.6103439008719889  0.3650815318568519
  0.3266369426750444  0.9959560656718338  0.7564494478219643
  0.3070840797108474  0.9653618030898770  0.2402841590955944
  0.1733630573249556  0.4959560656718338  0.7564494478219643
  0.4826682686377879  0.4179834188565863  0.1939241812629149
  0.6929159202891526  0.0346381969101230  0.7597158409044056
  0.5173317313622121  0.5820165811434137  0.8060758187370851
  0.6733630573249556  0.0040439343281662  0.2435505521780357
  0.0067626109413155  0.3258564306991758  0.0733305490984932
  0.0214489848084227  0.3200296651210124  0.5656039150852479
  0.5214489848084227  0.1799703348789876  0.4343960849147521
  0.4785510151915773  0.8200296651210124  0.5656039150852479
  0.5067626109413155  0.1741435693008242  0.9266694509015068
  0.4932373890586845  0.8258564306991758  0.0733305490984932
  0.9785510151915773  0.6799703348789876  0.4343960849147521
  0.9932373890586845  0.6741435693008242  0.9266694509015068
  0.3593825380642173  0.3094020426091930  0.8535399846036711
  0.1667712772377854  0.2027207795102726  0.1230847195988929
  0.3904178558755760  0.3790111336003719  0.3872716908825495
  0.1406174619357827  0.8094020426091930  0.8535399846036711
  0.0029240206290808  0.6182726564142911  0.0967124268129567
  0.6406174619357827  0.6905979573908070  0.1464600153963218
  0.8157815180915335  0.7614231495176185  0.3704838582480150
  0.1095821441244240  0.8790111336003719  0.3872716908825495
  0.3157815180915335  0.7385768504823815  0.6295161417519850
  0.5029240206290808  0.8817273435857089  0.9032875731870433
  0.6667712772377854  0.2972792204897274  0.8769152804011071
  0.8593825380642173  0.1905979573908070  0.1464600153963218
  0.1842184819084665  0.2385768504823815  0.6295161417519850
  0.0325867594767928  0.4102779423369682  0.3965161822424932
  0.6095821441244240  0.6209888663996281  0.6127283091174505
  0.4970759793709192  0.1182726564142911  0.0967124268129567
  0.6842184819084665  0.2614231495176185  0.3704838582480150
  0.8904178558755760  0.1209888663996281  0.6127283091174505
  0.9674132405232072  0.5897220576630318  0.6034838177575068
  0.9970759793709192  0.3817273435857089  0.9032875731870433
  0.8332287227622146  0.7972792204897274  0.8769152804011071
  0.5325867594767928  0.0897220576630318  0.6034838177575068
  0.3332287227622146  0.7027207795102726  0.1230847195988929
  0.4674132405232072  0.9102779423369682  0.3965161822424932

             NaN             NaN             NaN
             NaN             NaN             NaN
             NaN             NaN             NaN
             NaN             NaN             NaN
             NaN             NaN             NaN
             NaN             NaN             NaN
             NaN             NaN             NaN
             NaN             NaN             NaN
             NaN             NaN             NaN
             NaN             NaN             NaN
             NaN             NaN             NaN
             NaN             NaN             NaN
             NaN             NaN             NaN
             NaN             NaN             NaN
             NaN             NaN             NaN
             NaN             NaN             NaN
             NaN             NaN             NaN
             NaN             NaN             NaN
             NaN             NaN             NaN
             NaN             NaN             NaN
             NaN             NaN             NaN
             NaN             NaN             NaN
             NaN             NaN             NaN
             NaN             NaN             NaN
             NaN             NaN             NaN
             NaN             NaN             NaN
             NaN             NaN             NaN
             NaN             NaN             NaN
             NaN             NaN             NaN
             NaN             NaN             NaN
             NaN             NaN             NaN
             NaN             NaN             NaN
             NaN             NaN             NaN
             NaN             NaN             NaN
             NaN             NaN             NaN
             NaN             NaN             NaN
             NaN             NaN             NaN
             NaN             NaN             NaN
             NaN             NaN             NaN
             NaN             NaN             NaN
             NaN             NaN             NaN
             NaN             NaN             NaN
             NaN             NaN             NaN
             NaN             NaN             NaN
             NaN             NaN             NaN
             NaN             NaN             NaN
             NaN             NaN             NaN
             NaN             NaN             NaN
             NaN             NaN             NaN
             NaN             NaN             NaN
             NaN             NaN             NaN
             NaN             NaN             NaN
             NaN             NaN             NaN
             NaN             NaN             NaN
             NaN             NaN             NaN
