Na8 Sn6 S16                             
   1.0000000000000000     
     6.7921940074259401   -0.0017150114410088    0.4779349211278916
     2.7564695832503183    6.2077192117872819    0.4779349211278916
    -0.0065115619278542   -0.0042320875891509   17.8368956552402516
   Na   Sn   S 
     8     6    16
Direct
  0.0997595430358444  0.4299442377837650  0.3746511418893164
  0.9002404569641556  0.5700557622162350  0.6253488581106836
  0.4299442377837650  0.0997595430358444  0.8746511418893164
  0.5700557622162350  0.9002404569641556  0.1253488581106836
  0.4853937958001282  0.2335375934169122  0.6636558461082203
  0.7664624065830878  0.5146062041998718  0.8363441538917797
  0.2335375934169122  0.4853937958001282  0.1636558461082203
  0.5146062041998718  0.7664624065830878  0.3363441538917797
  0.2688450980775769  0.9334273290734032  0.5321691796289656
  0.0665726709265968  0.7311549019224231  0.9678308203710344
  0.7311549019224231  0.0665726709265968  0.4678308203710344
  0.9334273290734032  0.2688450980775769  0.0321691796289656
  0.0837119742588968  0.9162880257411032  0.7500000000000000
  0.9162880257411032  0.0837119742588968  0.2500000000000000
  0.1308934872381897  0.8285817796984034  0.4265041522005291
  0.1714182203015966  0.8691065127618103  0.0734958477994709
  0.3389078872153704  0.6995194294939182  0.6495880165322490
  0.6995194294939182  0.3389078872153704  0.1495880165322490
  0.3004805705060818  0.6610921127846296  0.8504119834677510
  0.6610921127846296  0.3004805705060818  0.3504119834677510
  0.2669152080134154  0.3265226742626908  0.0155453182962546
  0.6734773257373092  0.7330847919865846  0.4844546817037454
  0.7330847919865846  0.6734773257373092  0.9844546817037454
  0.3265226742626908  0.2669152080134154  0.5155453182962546
  0.7471506599437909  0.8863480280024372  0.7505442167882479
  0.1136508250892660  0.2528481931479121  0.7477739376549479
  0.2528481931479121  0.1136508250892660  0.2477739376549479
  0.8863491749107340  0.7471518068520879  0.2522260623450521
  0.8691065127618103  0.1714182203015966  0.5734958477994709
  0.8285817796984034  0.1308934872381897  0.9265041522005291

  0.00000000E+00  0.00000000E+00  0.00000000E+00
  0.00000000E+00  0.00000000E+00  0.00000000E+00
  0.00000000E+00  0.00000000E+00  0.00000000E+00
  0.00000000E+00  0.00000000E+00  0.00000000E+00
  0.00000000E+00  0.00000000E+00  0.00000000E+00
  0.00000000E+00  0.00000000E+00  0.00000000E+00
  0.00000000E+00  0.00000000E+00  0.00000000E+00
  0.00000000E+00  0.00000000E+00  0.00000000E+00
  0.00000000E+00  0.00000000E+00  0.00000000E+00
  0.00000000E+00  0.00000000E+00  0.00000000E+00
  0.00000000E+00  0.00000000E+00  0.00000000E+00
  0.00000000E+00  0.00000000E+00  0.00000000E+00
  0.00000000E+00  0.00000000E+00  0.00000000E+00
  0.00000000E+00  0.00000000E+00  0.00000000E+00
  0.00000000E+00  0.00000000E+00  0.00000000E+00
  0.00000000E+00  0.00000000E+00  0.00000000E+00
  0.00000000E+00  0.00000000E+00  0.00000000E+00
  0.00000000E+00  0.00000000E+00  0.00000000E+00
  0.00000000E+00  0.00000000E+00  0.00000000E+00
  0.00000000E+00  0.00000000E+00  0.00000000E+00
  0.00000000E+00  0.00000000E+00  0.00000000E+00
  0.00000000E+00  0.00000000E+00  0.00000000E+00
  0.00000000E+00  0.00000000E+00  0.00000000E+00
  0.00000000E+00  0.00000000E+00  0.00000000E+00
  0.00000000E+00  0.00000000E+00  0.00000000E+00
  0.00000000E+00  0.00000000E+00  0.00000000E+00
  0.00000000E+00  0.00000000E+00  0.00000000E+00
  0.00000000E+00  0.00000000E+00  0.00000000E+00
  0.00000000E+00  0.00000000E+00  0.00000000E+00
  0.00000000E+00  0.00000000E+00  0.00000000E+00
