                                        
   1.0000000000000000     
     8.3407774932627206    0.0000000000000000   -0.0067228787581434
     0.0000000000000000   12.5720365237523133    0.0000000000000000
    -3.0559332976520408    0.0000000000000000   12.8920116972305330
   Na   Sb   S    O    H 
    12     4    16    32    64
Direct
  0.5000000000000000  0.0000000000000000  0.5000000000000000
  0.5000000000000000  0.5000000000000000  0.0000000000000000
  0.0000000000000000  0.0000000000000000  0.0000000000000000
  0.0000000000000000  0.5000000000000000  0.5000000000000000
  0.1686144875261277  0.5584567625617396  0.0849710363115292
  0.8313855124738723  0.4415432374382604  0.9150289636884708
  0.8313855124738723  0.0584567625617396  0.4150289636884708
  0.1686144875261277  0.9415432374382604  0.5849710363115292
  0.6648239508185583  0.0508368730126776  0.0873239924620961
  0.3351760491814417  0.9491631269873224  0.9126760075379039
  0.3351760491814417  0.5508368730126776  0.4126760075379039
  0.6648239508185583  0.4491631269873224  0.5873239924620961
  0.2894158760785501  0.1677108616779464  0.2508014214901877
  0.7105841239214499  0.8322891383220536  0.7491985785098123
  0.7105841239214499  0.6677108616779464  0.2491985785098123
  0.2894158760785501  0.3322891383220536  0.7508014214901877
  0.2040081658273536  0.9910090732795780  0.2101954561560504
  0.7959918341726535  0.0089909267204220  0.7898045438439496
  0.7959918341726535  0.4910090732795780  0.2898045438439496
  0.2040081658273536  0.5089909267204220  0.7101954561560504
  0.4056334763413503  0.1942137253267688  0.4254109676572213
  0.5943665236586497  0.8057862746732312  0.5745890323427716
  0.5943665236586497  0.6942137253267688  0.0745890323427716
  0.4056334763413503  0.3057862746732312  0.9254109676572284
  0.4794506640141734  0.2139785493512818  0.1529345342929034
  0.5205493359858266  0.7860214506487182  0.8470654657070966
  0.5205493359858266  0.7139785493512818  0.3470654657070966
  0.4794506640141734  0.2860214506487182  0.6529345342929034
  0.0609617755133272  0.2820897257979951  0.2152094725801632
  0.9390382244866728  0.7179102742020049  0.7847905274198368
  0.9390382244866728  0.7820897257979951  0.2847905274198368
  0.0609617755133272  0.2179102742020049  0.7152094725801632
  0.0947662528408770  0.3872115430662362  0.0015950920401053
  0.9052337471591230  0.6127884569337638  0.9984049079598947
  0.9052337471591230  0.8872115430662362  0.4984049079598947
  0.0947662528408770  0.1127884569337638  0.5015950920401053
  0.1485111044298009  0.5222846890438220  0.2547261423364944
  0.8514888955701991  0.4777153109561780  0.7452738576635056
  0.8514888955701991  0.0222846890438220  0.2452738576635056
  0.1485111044298009  0.9777153109561780  0.7547261423364944
  0.1505671954818624  0.6573848715811721  0.4712484449950622
  0.8494328045181376  0.3426151284188279  0.5287515550049378
  0.8494328045181376  0.1573848715811721  0.0287515550049378
  0.1505671954818624  0.8426151284188279  0.9712484449950622
  0.2020278263787603  0.3948034894106343  0.4657515129920640
  0.7979721736212397  0.6051965105893657  0.5342484870079360
  0.7979721736212397  0.8948034894106343  0.0342484870079360
  0.2020278263787603  0.1051965105893657  0.9657515129920640
  0.2071528024891052  0.7347115966770943  0.1520013206867645
  0.7928471975108948  0.2652884033229057  0.8479986793132426
  0.7928471975108948  0.2347115966770943  0.3479986793132355
  0.2071528024891052  0.7652884033229057  0.6520013206867574
  0.4120983920742702  0.4571705038491771  0.1525046714422800
  0.5879016079257298  0.5428294961508229  0.8474953285577200
  0.5879016079257298  0.9571705038491771  0.3474953285577200
  0.4120983920742702  0.0428294961508229  0.6525046714422800
  0.5291418877565803  0.4254571916514749  0.4074842351799575
  0.4708581122434197  0.5745428083485251  0.5925157648200425
  0.4708581122434197  0.9254571916514749  0.0925157648200425
  0.5291418877565803  0.0745428083485251  0.9074842351799575
  0.7447448762618407  0.3994815616289173  0.0652995884951864
  0.2552551237381593  0.6005184383710827  0.9347004115048136
  0.2552551237381593  0.8994815616289173  0.4347004115048136
  0.7447448762618407  0.1005184383710827  0.5652995884951864
  0.0356779065003963  0.5264452183788251  0.2667840605503073
  0.9643220934996037  0.4735547816211749  0.7332159394496927
  0.9643220934996037  0.0264452183788251  0.2332159394496927
  0.0356779065003963  0.9735547816211749  0.7667840605503073
  0.0744687745750454  0.7009027689294456  0.4187173705160561
  0.9255312254249546  0.2990972310705544  0.5812826294839439
  0.9255312254249546  0.2009027689294456  0.0812826294839439
  0.0744687745750454  0.7990972310705544  0.9187173705160561
  0.0893258394943572  0.3446068740664856  0.0635079646741659
  0.9106741605056428  0.6553931259335144  0.9364920353258341
  0.9106741605056428  0.8446068740664856  0.4364920353258412
  0.0893258394943572  0.1553931259335144  0.5635079646741659
  0.1181780717702594  0.7429252861971491  0.1896424575780600
  0.8818219282297406  0.2570747138028509  0.8103575424219400
  0.8818219282297406  0.2429252861971491  0.3103575424219400
  0.1181780717702594  0.7570747138028509  0.6896424575780600
  0.1596893978545850  0.4447060365362177  0.2452228251620738
  0.8403106021454150  0.5552939634637823  0.7547771748379262
  0.8403106021454150  0.9447060365362177  0.2547771748379262
  0.1596893978545850  0.0552939634637823  0.7452228251620738
  0.1874747504164560  0.1433084260376063  0.4757131200694715
  0.8125252495835440  0.8566915739623937  0.5242868799305285
  0.8125252495835440  0.6433084260376063  0.0242868799305214
  0.1874747504164560  0.3566915739623937  0.9757131200694715
  0.1708975056394024  0.8026867996559588  0.0379776864965180
  0.8291024943606047  0.1973132003440341  0.9620223135034820
  0.8291024943606047  0.3026867996559659  0.4620223135034820
  0.1708975056394024  0.6973132003440412  0.5379776864965180
  0.1835769279259196  0.3443042863455332  0.4078054524788541
  0.8164230720740804  0.6556957136544668  0.5921945475211459
  0.8164230720740804  0.8443042863455332  0.0921945475211459
  0.1835769279259196  0.1556957136544668  0.9078054524788541
  0.2880576731518971  0.1401508431300655  0.0195722399207128
  0.7119423268481029  0.8598491568699345  0.9804277600792872
  0.7119423268481029  0.6401508431300655  0.4804277600792872
  0.2880576731518971  0.3598491568699345  0.5195722399207128
  0.4155438292502893  0.3780813035868249  0.1491623678589562
  0.5844561707497107  0.6219186964131751  0.8508376321410509
  0.5844561707497107  0.8780813035868249  0.3508376321410438
  0.4155438292502893  0.1219186964131751  0.6491623678589491
  0.5062086641914831  0.4727240752363784  0.2103014670097636
  0.4937913358085169  0.5272759247636216  0.7896985329902364
  0.4937913358085169  0.9727240752363784  0.2896985329902364
  0.5062086641914831  0.0272759247636216  0.7103014670097636
  0.4994739813928319  0.3489194634065385  0.4040842812498937
  0.5005260186071681  0.6510805365934615  0.5959157187501063
  0.5005260186071681  0.8489194634065385  0.0959157187501063
  0.4994739813928319  0.1510805365934615  0.9040842812498937
  0.6198431479718423  0.4342021941966365  0.3715816598777337
  0.3801568520281577  0.5657978058033635  0.6284183401222663
  0.3801568520281577  0.9342021941966365  0.1284183401222663
  0.6198431479718423  0.0657978058033635  0.8715816598777337
  0.6899822389613064  0.2334607165383034  0.2927412431011831
  0.3100177610386936  0.7665392834616966  0.7072587568988169
  0.3100177610386936  0.7334607165383034  0.2072587568988169
  0.6899822389613064  0.2665392834616966  0.7927412431011831
  0.7113894123180202  0.3253333744161253  0.0679034212124847
  0.2886105876819798  0.6746666255838747  0.9320965787875153
  0.2886105876819798  0.8253333744161253  0.4320965787875153
  0.7113894123180202  0.1746666255838747  0.5679034212124847
  0.7748077194712550  0.4239574060970952  0.1385259092114808
  0.2251922805287450  0.5760425939029048  0.8614740907885192
  0.2251922805287450  0.9239574060970952  0.3614740907885192
  0.7748077194712550  0.0760425939029048  0.6385259092114808

  0.00000000E+00  0.00000000E+00  0.00000000E+00
  0.00000000E+00  0.00000000E+00  0.00000000E+00
  0.00000000E+00  0.00000000E+00  0.00000000E+00
  0.00000000E+00  0.00000000E+00  0.00000000E+00
  0.00000000E+00  0.00000000E+00  0.00000000E+00
  0.00000000E+00  0.00000000E+00  0.00000000E+00
  0.00000000E+00  0.00000000E+00  0.00000000E+00
  0.00000000E+00  0.00000000E+00  0.00000000E+00
  0.00000000E+00  0.00000000E+00  0.00000000E+00
  0.00000000E+00  0.00000000E+00  0.00000000E+00
  0.00000000E+00  0.00000000E+00  0.00000000E+00
  0.00000000E+00  0.00000000E+00  0.00000000E+00
  0.00000000E+00  0.00000000E+00  0.00000000E+00
  0.00000000E+00  0.00000000E+00  0.00000000E+00
  0.00000000E+00  0.00000000E+00  0.00000000E+00
  0.00000000E+00  0.00000000E+00  0.00000000E+00
  0.00000000E+00  0.00000000E+00  0.00000000E+00
  0.00000000E+00  0.00000000E+00  0.00000000E+00
  0.00000000E+00  0.00000000E+00  0.00000000E+00
  0.00000000E+00  0.00000000E+00  0.00000000E+00
  0.00000000E+00  0.00000000E+00  0.00000000E+00
  0.00000000E+00  0.00000000E+00  0.00000000E+00
  0.00000000E+00  0.00000000E+00  0.00000000E+00
  0.00000000E+00  0.00000000E+00  0.00000000E+00
  0.00000000E+00  0.00000000E+00  0.00000000E+00
  0.00000000E+00  0.00000000E+00  0.00000000E+00
  0.00000000E+00  0.00000000E+00  0.00000000E+00
  0.00000000E+00  0.00000000E+00  0.00000000E+00
  0.00000000E+00  0.00000000E+00  0.00000000E+00
  0.00000000E+00  0.00000000E+00  0.00000000E+00
  0.00000000E+00  0.00000000E+00  0.00000000E+00
  0.00000000E+00  0.00000000E+00  0.00000000E+00
  0.00000000E+00  0.00000000E+00  0.00000000E+00
  0.00000000E+00  0.00000000E+00  0.00000000E+00
  0.00000000E+00  0.00000000E+00  0.00000000E+00
  0.00000000E+00  0.00000000E+00  0.00000000E+00
  0.00000000E+00  0.00000000E+00  0.00000000E+00
  0.00000000E+00  0.00000000E+00  0.00000000E+00
  0.00000000E+00  0.00000000E+00  0.00000000E+00
  0.00000000E+00  0.00000000E+00  0.00000000E+00
  0.00000000E+00  0.00000000E+00  0.00000000E+00
  0.00000000E+00  0.00000000E+00  0.00000000E+00
  0.00000000E+00  0.00000000E+00  0.00000000E+00
  0.00000000E+00  0.00000000E+00  0.00000000E+00
  0.00000000E+00  0.00000000E+00  0.00000000E+00
  0.00000000E+00  0.00000000E+00  0.00000000E+00
  0.00000000E+00  0.00000000E+00  0.00000000E+00
  0.00000000E+00  0.00000000E+00  0.00000000E+00
  0.00000000E+00  0.00000000E+00  0.00000000E+00
  0.00000000E+00  0.00000000E+00  0.00000000E+00
  0.00000000E+00  0.00000000E+00  0.00000000E+00
  0.00000000E+00  0.00000000E+00  0.00000000E+00
  0.00000000E+00  0.00000000E+00  0.00000000E+00
  0.00000000E+00  0.00000000E+00  0.00000000E+00
  0.00000000E+00  0.00000000E+00  0.00000000E+00
  0.00000000E+00  0.00000000E+00  0.00000000E+00
  0.00000000E+00  0.00000000E+00  0.00000000E+00
  0.00000000E+00  0.00000000E+00  0.00000000E+00
  0.00000000E+00  0.00000000E+00  0.00000000E+00
  0.00000000E+00  0.00000000E+00  0.00000000E+00
  0.00000000E+00  0.00000000E+00  0.00000000E+00
  0.00000000E+00  0.00000000E+00  0.00000000E+00
  0.00000000E+00  0.00000000E+00  0.00000000E+00
  0.00000000E+00  0.00000000E+00  0.00000000E+00
  0.00000000E+00  0.00000000E+00  0.00000000E+00
  0.00000000E+00  0.00000000E+00  0.00000000E+00
  0.00000000E+00  0.00000000E+00  0.00000000E+00
  0.00000000E+00  0.00000000E+00  0.00000000E+00
  0.00000000E+00  0.00000000E+00  0.00000000E+00
  0.00000000E+00  0.00000000E+00  0.00000000E+00
  0.00000000E+00  0.00000000E+00  0.00000000E+00
  0.00000000E+00  0.00000000E+00  0.00000000E+00
  0.00000000E+00  0.00000000E+00  0.00000000E+00
  0.00000000E+00  0.00000000E+00  0.00000000E+00
  0.00000000E+00  0.00000000E+00  0.00000000E+00
  0.00000000E+00  0.00000000E+00  0.00000000E+00
  0.00000000E+00  0.00000000E+00  0.00000000E+00
  0.00000000E+00  0.00000000E+00  0.00000000E+00
  0.00000000E+00  0.00000000E+00  0.00000000E+00
  0.00000000E+00  0.00000000E+00  0.00000000E+00
  0.00000000E+00  0.00000000E+00  0.00000000E+00
  0.00000000E+00  0.00000000E+00  0.00000000E+00
  0.00000000E+00  0.00000000E+00  0.00000000E+00
  0.00000000E+00  0.00000000E+00  0.00000000E+00
  0.00000000E+00  0.00000000E+00  0.00000000E+00
  0.00000000E+00  0.00000000E+00  0.00000000E+00
  0.00000000E+00  0.00000000E+00  0.00000000E+00
  0.00000000E+00  0.00000000E+00  0.00000000E+00
  0.00000000E+00  0.00000000E+00  0.00000000E+00
  0.00000000E+00  0.00000000E+00  0.00000000E+00
  0.00000000E+00  0.00000000E+00  0.00000000E+00
  0.00000000E+00  0.00000000E+00  0.00000000E+00
  0.00000000E+00  0.00000000E+00  0.00000000E+00
  0.00000000E+00  0.00000000E+00  0.00000000E+00
  0.00000000E+00  0.00000000E+00  0.00000000E+00
  0.00000000E+00  0.00000000E+00  0.00000000E+00
  0.00000000E+00  0.00000000E+00  0.00000000E+00
  0.00000000E+00  0.00000000E+00  0.00000000E+00
  0.00000000E+00  0.00000000E+00  0.00000000E+00
  0.00000000E+00  0.00000000E+00  0.00000000E+00
  0.00000000E+00  0.00000000E+00  0.00000000E+00
  0.00000000E+00  0.00000000E+00  0.00000000E+00
  0.00000000E+00  0.00000000E+00  0.00000000E+00
  0.00000000E+00  0.00000000E+00  0.00000000E+00
  0.00000000E+00  0.00000000E+00  0.00000000E+00
  0.00000000E+00  0.00000000E+00  0.00000000E+00
  0.00000000E+00  0.00000000E+00  0.00000000E+00
  0.00000000E+00  0.00000000E+00  0.00000000E+00
  0.00000000E+00  0.00000000E+00  0.00000000E+00
  0.00000000E+00  0.00000000E+00  0.00000000E+00
  0.00000000E+00  0.00000000E+00  0.00000000E+00
  0.00000000E+00  0.00000000E+00  0.00000000E+00
  0.00000000E+00  0.00000000E+00  0.00000000E+00
  0.00000000E+00  0.00000000E+00  0.00000000E+00
  0.00000000E+00  0.00000000E+00  0.00000000E+00
  0.00000000E+00  0.00000000E+00  0.00000000E+00
  0.00000000E+00  0.00000000E+00  0.00000000E+00
  0.00000000E+00  0.00000000E+00  0.00000000E+00
  0.00000000E+00  0.00000000E+00  0.00000000E+00
  0.00000000E+00  0.00000000E+00  0.00000000E+00
  0.00000000E+00  0.00000000E+00  0.00000000E+00
  0.00000000E+00  0.00000000E+00  0.00000000E+00
  0.00000000E+00  0.00000000E+00  0.00000000E+00
  0.00000000E+00  0.00000000E+00  0.00000000E+00
  0.00000000E+00  0.00000000E+00  0.00000000E+00
  0.00000000E+00  0.00000000E+00  0.00000000E+00
  0.00000000E+00  0.00000000E+00  0.00000000E+00
  0.00000000E+00  0.00000000E+00  0.00000000E+00
