ALGO = Fast
EDIFF = 1e-08
EDIFFG = -0.001
ENCUT = 520
IBRION = 2
ICHARG = 1
ISIF = 2
ISMEAR = 0
ISPIN = 2
ISYM = 0
LASPH = True
LORBIT = 11
LREAL = Auto
LVHAR = True
LVTOT = True
LWAVE = False
MAGMOM = 96*0.6
NELM = 100
NPAR = 2
NSW = 99
PREC = Accurate
SIGMA = 0.05
