SYSTEM = NEB

! Electronic structure
ENCUT  = 400
EDIFF  = 1E-05
PREC   = Normal
ALGO   = Fast
LREAL  = Auto
ISYM   = 0

! NEB settings
IBRION = 3
POTIM  = 0
NSW    = 300
EDIFFG = -0.05
IMAGES = 5
SPRING = -5
LCLIMB = .TRUE.

! Output
LWAVE  = .FALSE.
LCHARG = .FALSE.

! Parallelisation (NPAR = IMAGES for balanced load)
NPAR   = 5
