pymatgen with grid density = 500 / number of atoms
0
Gamma
1 2 3
