Na48 Si12 S48
1.0
  41.0300999999999974    0.0000000000000000    0.0000000000000025
  -0.0000000000000005    8.7841000000000005    0.0000000000000005
   0.0000000000000000    0.0000000000000000    6.8896300000000004
Na Si S
48 12 48
direct
   0.2393000000000000    0.0480000000000000    0.3860000000000000 Na
   0.2607000000000000    0.9520000000000000    0.8860000000000000 Na
   0.7606999999999999    0.5480000000000000    0.1140000000000000 Na
   0.7393000000000001    0.4520000000000000    0.6140000000000000 Na
   0.5762000000000000    0.0450000000000000    0.4060000000000000 Na
   0.9238000000000000    0.9550000000000000    0.9060000000000000 Na
   0.4238000000000000    0.5450000000000000    0.0940000000000000 Na
   0.0762000000000000    0.4550000000000000    0.5940000000000000 Na
   0.9052000000000000    0.0560000000000000    0.4080000000000000 Na
   0.5948000000000000    0.9440000000000000    0.9079999999999999 Na
   0.0948000000000000    0.5560000000000000    0.0920000000000000 Na
   0.4052000000000000    0.4440000000000000    0.5920000000000001 Na
   0.2435000000000000    0.4430000000000000    0.3810000000000000 Na
   0.2565000000000000    0.5569999999999999    0.8810000000000000 Na
   0.7565000000000000    0.9430000000000001    0.1190000000000000 Na
   0.7435000000000000    0.0570000000000000    0.6190000000000000 Na
   0.5760000000000000    0.4520000000000000    0.3840000000000000 Na
   0.9240000000000000    0.5480000000000000    0.8840000000000000 Na
   0.4240000000000000    0.9520000000000000    0.1160000000000000 Na
   0.0760000000000001    0.0480000000000000    0.6160000000000000 Na
   0.9166000000000000    0.4330000000000000    0.3790000000000000 Na
   0.5834000000000000    0.5669999999999999    0.8790000000000000 Na
   0.0834000000000000    0.9330000000000001    0.1210000000000000 Na
   0.4165999999999999    0.0670000000000000    0.6210000000000000 Na
   0.1517000000000000    0.2410000000000000    0.2560000000000000 Na
   0.3483000000000000    0.7590000000000000    0.7560000000000000 Na
   0.8483000000000001    0.7410000000000000    0.2440000000000000 Na
   0.6516999999999999    0.2590000000000000    0.7440000000000000 Na
   0.4840000000000000    0.2430000000000000    0.2440000000000000 Na
   0.0160000000000000    0.7570000000000000    0.7440000000000000 Na
   0.5160000000000000    0.7430000000000000    0.2560000000000000 Na
   0.9840000000000000    0.2570000000000000    0.7560000000000000 Na
   0.8199000000000000    0.2410000000000000    0.2560000000000000 Na
   0.6801000000000000    0.7590000000000000    0.7560000000000000 Na
   0.1801000000000000    0.7410000000000000    0.2440000000000000 Na
   0.3199000000000001    0.2590000000000000    0.7440000000000000 Na
   0.9921000000000000    0.0349999999999999    0.2350000000000000 Na
   0.5079000000000000    0.9650000000000001    0.7350000000000000 Na
   0.0079000000000000    0.5349999999999999    0.2650000000000000 Na
   0.4921000000000000    0.4650000000000001    0.7650000000000000 Na
   0.3330000000000000    0.0109999999999999    0.2380000000000000 Na
   0.1670000000000000    0.9890000000000001    0.7380000000000000 Na
   0.6670000000000000    0.5109999999999999    0.2620000000000000 Na
   0.8330000000000000    0.4890000000000001    0.7620000000000000 Na
   0.6706000000000000    0.9790000000000000    0.2700000000000000 Na
   0.8294000000000000    0.0210000000000000    0.7700000000000000 Na
   0.3294000000000000    0.4790000000000001    0.2300000000000000 Na
   0.1705999999999999    0.5210000000000000    0.7300000000000000 Na
   0.2216000000000000    0.2460000000000000    0.9620000000000000 Si
   0.2784000000000000    0.7540000000000000    0.4620000000000000 Si
   0.7784000000000000    0.7460000000000000    0.5380000000000000 Si
   0.7216000000000000    0.2540000000000000    0.0380000000000000 Si
   0.5555000000000000    0.2480000000000000    0.9730000000000000 Si
   0.9445000000000000    0.7520000000000000    0.4729999999999999 Si
   0.4445000000000000    0.7480000000000000    0.5270000000000000 Si
   0.0554999999999999    0.2520000000000000    0.0270000000000000 Si
   0.8868000000000000    0.2450000000000000    0.9800000000000000 Si
   0.6132000000000000    0.7550000000000000    0.4800000000000000 Si
   0.1132000000000000    0.7450000000000000    0.5200000000000000 Si
   0.3868000000000000    0.2550000000000000    0.0200000000000000 Si
   0.0315000000000000    0.0560000000000000    0.9080000000000000 S
   0.4685000000000000    0.9440000000000000    0.4079999999999999 S
   0.9685000000000000    0.5560000000000000    0.5920000000000000 S
   0.5315000000000000    0.4440000000000000    0.0920000000000000 S
   0.3654000000000000    0.0650000000000000    0.9040000000000000 S
   0.1346000000000000    0.9350000000000001    0.4039999999999999 S
   0.6346000000000001    0.5649999999999999    0.5960000000000000 S
   0.8653999999999999    0.4350000000000000    0.0960000000000000 S
   0.6992000000000000    0.0510000000000000    0.9070000000000000 S
   0.8008000000000000    0.9490000000000000    0.4070000000000000 S
   0.3008000000000000    0.5510000000000000    0.5930000000000000 S
   0.1992000000000000    0.4490000000000000    0.0930000000000000 S
   0.0621000000000000    0.7580000000000000    0.4360000000000000 S
   0.4379000000000000    0.2420000000000000    0.9359999999999999 S
   0.9379000000000000    0.2580000000000000    0.0640000000000000 S
   0.5621000000000000    0.7420000000000000    0.5640000000000001 S
   0.3964000000000000    0.7480000000000000    0.4470000000000000 S
   0.1036000000000000    0.2520000000000000    0.9470000000000001 S
   0.6036000000000000    0.2480000000000000    0.0530000000000000 S
   0.8964000000000000    0.7520000000000000    0.5529999999999999 S
   0.7289000000000000    0.7520000000000000    0.4300000000000000 S
   0.7711000000000000    0.2480000000000000    0.9299999999999999 S
   0.2711000000000000    0.2520000000000000    0.0700000000000000 S
   0.2288999999999999    0.7480000000000000    0.5700000000000001 S
   0.1346000000000000    0.5480000000000000    0.4220000000000000 S
   0.3654000000000000    0.4520000000000000    0.9219999999999999 S
   0.8653999999999999    0.0480000000000000    0.0780000000000000 S
   0.6346000000000001    0.9520000000000000    0.5780000000000001 S
   0.4662000000000000    0.5370000000000000    0.4340000000000000 S
   0.0338000000000000    0.4630000000000000    0.9339999999999999 S
   0.5338000000000001    0.0369999999999999    0.0660000000000000 S
   0.9661999999999999    0.9630000000000000    0.5660000000000001 S
   0.8018999999999999    0.5480000000000000    0.4080000000000000 S
   0.6981000000000001    0.4520000000000000    0.9079999999999999 S
   0.1981000000000001    0.0480000000000000    0.0920000000000000 S
   0.3018999999999998    0.9520000000000000    0.5920000000000001 S
   0.2185000000000000    0.2490000000000000    0.6690000000000000 S
   0.2815000000000000    0.7510000000000000    0.1690000000000000 S
   0.7815000000000000    0.7490000000000000    0.8310000000000000 S
   0.7185000000000000    0.2510000000000000    0.3310000000000000 S
   0.5436000000000000    0.2470000000000000    0.6620000000000000 S
   0.9564000000000000    0.7530000000000000    0.1619999999999999 S
   0.4564000000000000    0.7470000000000000    0.8380000000000000 S
   0.0436000000000001    0.2530000000000000    0.3380000000000000 S
   0.8813000000000000    0.2460000000000000    0.6670000000000000 S
   0.6187000000000000    0.7540000000000000    0.1670000000000000 S
   0.1187000000000000    0.7460000000000000    0.8330000000000000 S
   0.3813000000000000    0.2540000000000000    0.3330000000000000 S
