Na12 Si4 S14                            
   1.0000000000000000     
     6.7992921385319924    0.0035306241515896    1.1991185957669768
    -1.1450930877734515    6.7021757345434274    1.1991188187414166
    -0.0167963838357614   -0.0199199902988139   15.0687941891412009
   Na   Si   S 
    12     4    14
Direct
  0.5801195859660501  0.4198804140341210  0.7499999999999728
  0.4198804140339499  0.5801195859658791  0.2500000000000271
  0.5000000000000000  0.5000000000000000  0.0000000000000000
  0.5000000000000000  0.5000000000000000  0.5000000000000000
  0.2641344324575632  0.9710824438765742  0.9251869957534348
  0.0289175561234677  0.7358655675425529  0.5748130042465401
  0.7358655675424368  0.0289175561234257  0.0748130042465652
  0.9710824438765324  0.2641344324574473  0.4251869957534599
  0.5109140929323445  0.9517552427522035  0.6392492136948876
  0.0482447572475712  0.4890859070676156  0.8607507863051541
  0.4890859070676555  0.0482447572477964  0.3607507863051124
  0.9517552427524287  0.5109140929323844  0.1392492136948459
  0.7660953271750354  0.9241540393913713  0.8596412192149664
  0.0758459606086569  0.2339046728248593  0.6403587807850820
  0.9241540393913432  0.7660953271751405  0.3596412192149179
  0.2339046728249644  0.0758459606086287  0.1403587807850337
  0.0334797394247684  0.9665202605747751  0.7500000000000353
  0.9665202605752318  0.0334797394252249  0.2499999999999646
  0.6945542320672430  0.1948110015436766  0.8930741559926397
  0.8051889984574334  0.3054457679333556  0.6069258440071003
  0.3054457679327570  0.8051889984563233  0.1069258440073604
  0.1948110015425665  0.6945542320666442  0.3930741559928996
  0.8658761535837542  0.7446115520578409  0.9679246618793058
  0.2553884479414771  0.1341238464155576  0.5320753381208918
  0.1341238464162459  0.2553884479421590  0.0320753381206942
  0.7446115520585228  0.8658761535844424  0.4679246618791082
  0.5197886587464325  0.7605982821734427  0.8214392102554104
  0.2394017178262249  0.4802113412541396  0.6785607897445626
  0.4802113412535675  0.2394017178265573  0.1785607897445895
  0.7605982821737751  0.5197886587458604  0.3214392102554373

  0.00000000E+00  0.00000000E+00  0.00000000E+00
  0.00000000E+00  0.00000000E+00  0.00000000E+00
  0.00000000E+00  0.00000000E+00  0.00000000E+00
  0.00000000E+00  0.00000000E+00  0.00000000E+00
  0.00000000E+00  0.00000000E+00  0.00000000E+00
  0.00000000E+00  0.00000000E+00  0.00000000E+00
  0.00000000E+00  0.00000000E+00  0.00000000E+00
  0.00000000E+00  0.00000000E+00  0.00000000E+00
  0.00000000E+00  0.00000000E+00  0.00000000E+00
  0.00000000E+00  0.00000000E+00  0.00000000E+00
  0.00000000E+00  0.00000000E+00  0.00000000E+00
  0.00000000E+00  0.00000000E+00  0.00000000E+00
  0.00000000E+00  0.00000000E+00  0.00000000E+00
  0.00000000E+00  0.00000000E+00  0.00000000E+00
  0.00000000E+00  0.00000000E+00  0.00000000E+00
  0.00000000E+00  0.00000000E+00  0.00000000E+00
  0.00000000E+00  0.00000000E+00  0.00000000E+00
  0.00000000E+00  0.00000000E+00  0.00000000E+00
  0.00000000E+00  0.00000000E+00  0.00000000E+00
  0.00000000E+00  0.00000000E+00  0.00000000E+00
  0.00000000E+00  0.00000000E+00  0.00000000E+00
  0.00000000E+00  0.00000000E+00  0.00000000E+00
  0.00000000E+00  0.00000000E+00  0.00000000E+00
  0.00000000E+00  0.00000000E+00  0.00000000E+00
  0.00000000E+00  0.00000000E+00  0.00000000E+00
  0.00000000E+00  0.00000000E+00  0.00000000E+00
  0.00000000E+00  0.00000000E+00  0.00000000E+00
  0.00000000E+00  0.00000000E+00  0.00000000E+00
  0.00000000E+00  0.00000000E+00  0.00000000E+00
  0.00000000E+00  0.00000000E+00  0.00000000E+00
