Na12 Si4 S14
1.0
   6.7304733229449480    0.0000000000000000    1.1933506884116067
  -1.1369477287760548    6.6337494860234907    1.1933509090340422
   0.0000000000000000    0.0000000000000000   14.9020570600000006
Na Si S
12 4 14
direct
   0.5794821000000000    0.4205179000000000    0.7500000000000000 Na
   0.4205179000000000    0.5794821000000000    0.2500000000000000 Na
   0.5000000000000000    0.5000000000000000    0.0000000000000000 Na
   0.5000000000000000    0.5000000000000000    0.5000000000000000 Na
   0.2634963100000000    0.9710033500000000    0.9252493000000001 Na
   0.0289966500000000    0.7365036900000000    0.5747506999999999 Na
   0.7365036900000000    0.0289966500000000    0.0747507000000000 Na
   0.9710033500000000    0.2634963100000000    0.4252493000000000 Na
   0.5105537000000000    0.9504969599999999    0.6390811400000000 Na
   0.0495030400000000    0.4894463000000000    0.8609188600000000 Na
   0.4894463000000000    0.0495030400000000    0.3609188600000000 Na
   0.9504969599999999    0.5105537000000000    0.1390811400000000 Na
   0.7655564000000000    0.9238295900000000    0.8604116400000000 Si
   0.0761704100000000    0.2344436000000000    0.6395883600000000 Si
   0.9238295900000000    0.7655564000000000    0.3604116400000000 Si
   0.2344436000000000    0.0761704100000000    0.1395883600000000 Si
   0.0339759200000000    0.9660240800000000    0.7500000000000000 S
   0.9660240800000000    0.0339759200000000    0.2500000000000000 S
   0.6940510300000000    0.1960936100000000    0.8932542200000000 S
   0.8039063900000000    0.3059489700000000    0.6067457800000000 S
   0.3059489700000000    0.8039063900000000    0.1067457800000000 S
   0.1960936100000000    0.6940510300000000    0.3932542200000000 S
   0.8661795600000000    0.7438053100000001    0.9690437000000000 S
   0.2561946900000000    0.1338204400000000    0.5309563000000000 S
   0.1338204400000000    0.2561946900000000    0.0309563000000000 S
   0.7438053100000001    0.8661795600000000    0.4690437000000000 S
   0.5189753000000000    0.7598064200000000    0.8217441900000000 S
   0.2401935800000000    0.4810247000000000    0.6782558100000000 S
   0.4810247000000000    0.2401935800000000    0.1782558100000000 S
   0.7598064200000000    0.5189753000000000    0.3217441900000000 S
