ALGO = Fast
EDIFF = 1e-05
EDIFFG = -0.01
ENCUT = 400
IBRION = 2
ICHARG = 1
ISIF = 0
ISMEAR = 0
ISPIN = 1
LORBIT = 11
LREAL = Auto
LWAVE = False
MAGMOM = 145*0.6
NCORE = 16
NELM = 100
NSW = 299
PREC = Normal
SIGMA = 0.05
NELECT = 802
