Li65 Ge16 O64
1.0
10.831905 0.000000 0.000000
-0.631889 10.813458 0.000000
0.000000 0.000000 12.276730
Li Ge O
65 16 64
direct
0.062691 0.210580 0.375000 Li
0.062691 0.210580 0.875000 Li
0.062691 0.710580 0.375000 Li
0.062691 0.710580 0.875000 Li
0.562691 0.210580 0.375000 Li
0.562691 0.210580 0.875000 Li
0.562691 0.710580 0.375000 Li
0.562691 0.710580 0.875000 Li
0.437309 0.289421 0.125000 Li
0.437309 0.289421 0.625000 Li
0.437309 0.789421 0.125000 Li
0.437309 0.789421 0.625000 Li
0.937309 0.289421 0.125000 Li
0.937309 0.289421 0.625000 Li
0.937309 0.789421 0.125000 Li
0.937309 0.789421 0.625000 Li
0.080929 0.419072 0.000000 Li
0.080929 0.419072 0.500000 Li
0.080929 0.919071 0.000000 Li
0.080929 0.919071 0.500000 Li
0.580929 0.419072 1.000000 Li
0.580929 0.419072 0.500000 Li
0.580928 0.919071 0.000000 Li
0.580928 0.919071 0.500000 Li
0.419072 0.080929 0.250000 Li
0.419072 0.080929 0.750000 Li
0.419072 0.580929 0.250000 Li
0.419072 0.580929 0.750000 Li
0.919072 0.080929 0.250000 Li
0.919072 0.080929 0.750000 Li
0.919072 0.580929 0.250000 Li
0.919072 0.580929 0.750000 Li
0.419072 0.080929 1.000000 Li
0.419072 0.080929 0.500000 Li
0.419072 0.580929 0.000000 Li
0.419072 0.580929 0.500000 Li
0.919072 0.080929 1.000000 Li
0.919072 0.080929 0.500000 Li
0.919072 0.580929 1.000000 Li
0.919072 0.580929 0.500000 Li
0.080929 0.419072 0.250000 Li
0.080929 0.419072 0.750000 Li
0.080929 0.919071 0.250000 Li
0.080929 0.919071 0.750000 Li
0.580929 0.419072 0.250000 Li
0.580929 0.419072 0.750000 Li
0.580928 0.919071 0.250000 Li
0.580928 0.919071 0.750000 Li
0.289421 0.437309 0.125000 Li
0.289421 0.437309 0.625000 Li
0.289421 0.937309 0.125000 Li
0.289421 0.937309 0.625000 Li
0.789421 0.437309 0.125000 Li
0.789421 0.437309 0.625000 Li
0.789421 0.937309 0.125000 Li
0.789421 0.937309 0.625000 Li
0.210580 0.062691 0.375000 Li
0.210580 0.062691 0.875000 Li
0.210580 0.562691 0.375000 Li
0.210580 0.562691 0.875000 Li
0.710580 0.062691 0.375000 Li
0.710580 0.062691 0.875000 Li
0.710580 0.562691 0.375000 Li
0.710580 0.562691 0.875000 Li
0.750000 0.750000 0.250000 Li
0.330649 0.330649 0.375000 Ge
0.330649 0.330649 0.875000 Ge
0.330649 0.830650 0.375000 Ge
0.330649 0.830650 0.875000 Ge
0.830650 0.330649 0.375000 Ge
0.830650 0.330649 0.875000 Ge
0.830650 0.830650 0.375000 Ge
0.830650 0.830650 0.875000 Ge
0.169350 0.169350 0.125000 Ge
0.169350 0.169350 0.625000 Ge
0.169350 0.669350 0.125000 Ge
0.169350 0.669350 0.625000 Ge
0.669351 0.169350 0.125000 Ge
0.669351 0.169350 0.625000 Ge
0.669350 0.669350 0.125000 Ge
0.669350 0.669350 0.625000 Ge
0.133413 0.327887 0.125000 O
0.133413 0.327887 0.625000 O
0.133413 0.827887 0.125000 O
0.133413 0.827887 0.625000 O
0.633413 0.327887 0.125000 O
0.633413 0.327887 0.625000 O
0.633413 0.827887 0.125000 O
0.633413 0.827887 0.625000 O
0.366587 0.172113 0.375000 O
0.366587 0.172113 0.875000 O
0.366587 0.672113 0.375000 O
0.366587 0.672113 0.875000 O
0.866587 0.172113 0.375000 O
0.866587 0.172113 0.875000 O
0.866587 0.672113 0.375000 O
0.866587 0.672113 0.875000 O
0.101854 0.101854 0.003774 O
0.101854 0.101854 0.503774 O
0.101854 0.601854 0.003774 O
0.101854 0.601854 0.503774 O
0.601854 0.101854 0.003774 O
0.601854 0.101854 0.503774 O
0.601854 0.601854 0.003774 O
0.601854 0.601854 0.503774 O
0.398146 0.398146 0.253774 O
0.398146 0.398146 0.753774 O
0.398146 0.898146 0.253774 O
0.398146 0.898146 0.753774 O
0.898146 0.398146 0.253774 O
0.898146 0.398146 0.753774 O
0.898146 0.898146 0.253774 O
0.898146 0.898146 0.753774 O
0.101854 0.101854 0.246226 O
0.101854 0.101854 0.746226 O
0.101854 0.601854 0.246226 O
0.101854 0.601854 0.746226 O
0.601854 0.101854 0.246226 O
0.601854 0.101854 0.746226 O
0.601854 0.601854 0.246226 O
0.601854 0.601854 0.746226 O
0.398146 0.398146 0.496226 O
0.398146 0.398146 0.996226 O
0.398146 0.898146 0.496226 O
0.398146 0.898146 0.996226 O
0.898146 0.398146 0.496226 O
0.898146 0.398146 0.996226 O
0.898146 0.898146 0.496226 O
0.898146 0.898146 0.996226 O
0.327887 0.133413 0.125000 O
0.327887 0.133413 0.625000 O
0.327888 0.633413 0.125000 O
0.327888 0.633413 0.625000 O
0.827888 0.133413 0.125000 O
0.827888 0.133413 0.625000 O
0.827887 0.633413 0.125000 O
0.827887 0.633413 0.625000 O
0.172113 0.366587 0.375000 O
0.172113 0.366587 0.875000 O
0.172113 0.866587 0.375000 O
0.172113 0.866587 0.875000 O
0.672113 0.366587 0.375000 O
0.672113 0.366587 0.875000 O
0.672113 0.866587 0.375000 O
0.672113 0.866587 0.875000 O
