user_Na5AlS4_Na5AlS4 NEB_v2 image 07    
   1.0000000000000000     
    12.1026382039385112    0.0000000000000000    0.0000000000000007
    -0.0000000000000004    7.0938170788834114    0.0000000000000004
     0.0000000000000000    0.0000000000000000   21.6510149562332330
   Na   Al   S 
    39     8    32
Direct
  0.3504750272716493  0.8977292586092318  0.4993512380970415
  0.6513454626642954  0.4075726158750186  0.0016207954783880
  0.1520451810054695  0.0926733816488365  0.9981504178437390
  0.1513615795991754  0.4057539884044843  0.5014503457389168
  0.3486665410280594  0.5926023798420559  0.9987074018152313
  0.6512807932651228  0.1022108306039584  0.5002091228834402
  0.8417369995801280  0.5881921713893519  0.4973793842519640
  0.8482776769484701  0.9075281422027217  0.0020049320617801
  0.2935896748814670  0.5464068458633093  0.3663079576858266
  0.7124256707124061  0.0524767751826190  0.1393304643281610
  0.2115015856994020  0.4479422870180017  0.8616510726757909
  0.2137625551692750  0.0476403084266082  0.3659539019646090
  0.2880930387019660  0.9471681909838736  0.8611720394758677
  0.7079059166774329  0.4564498892143831  0.6356982788710397
  0.7869678957558293  0.9527485341914073  0.6341492394482984
  0.7886222772508802  0.5526094314140906  0.1383218388826322
  0.4859447749536727  0.4836625025381664  0.5194145963685841
  0.4472095816701724  0.0636941219101743  0.0656282179890297
  0.9464168060044287  0.4370136677270295  0.9346111144210738
  0.9471685753310695  0.0564321001589860  0.4347070522186343
  0.5535305751964543  0.9366858213724569  0.9346519960976352
  0.0525139069697289  0.9403174573334638  0.5650746348336497
  0.0533431477410602  0.5629970493761860  0.0653375429524985
  0.5837640000064255  0.3813738128201223  0.2553224303611188
  0.4168228496391180  0.8824282926690472  0.2487731842521583
  0.9143048115401626  0.6176866825801568  0.7523726040664087
  0.9158933755104499  0.8857898820451240  0.2540555219881213
  0.5837629232166250  0.1212949187862549  0.7511245284217054
  0.4176059387567292  0.6152214351104561  0.7447255053248085
  0.0826654272098821  0.1150222227016329  0.7463364868589863
  0.0867047160667056  0.3826054804690244  0.2477692469160147
  0.8342346093404771  0.1053546548098296  0.8297313164177353
  0.1658213152393557  0.6111873865333521  0.6677288698001362
  0.6583506185684769  0.8642895130912862  0.3397470937811349
  0.6641041902598062  0.6064624395306595  0.8296426836774842
  0.8342257618758566  0.3864845286509038  0.3320490339174640
  0.1653934419933663  0.8944079885753808  0.1703973284540865
  0.3362997953426969  0.3949276798049155  0.1705002388378816
  0.3384413950953800  0.1257364317839702  0.6628248268514767
  0.0400413739386067  0.8325049152459343  0.8739620980397831
  0.9559467113187239  0.3368756985613715  0.6255771831807166
  0.4576365000118585  0.1643353128869052  0.3759608371047278
  0.4584055936740512  0.3324325945956801  0.8732418244113518
  0.0437576037148872  0.6608495404706289  0.3745824320355737
  0.9602738719579449  0.1678827588606353  0.1260169866350367
  0.5417029026842783  0.6678350419962413  0.1272214743261912
  0.5423319610839243  0.8409960134233856  0.6243195719140928
  0.3691651438877699  0.2079197101714314  0.9569253873519088
  0.6378260100173492  0.7275826490966821  0.5419689351496118
  0.1304508652926089  0.7846257111455017  0.4587081299281479
  0.1308420876651226  0.7081424594744448  0.9570559670014163
  0.3589222857394816  0.2724460992630853  0.4580497548202302
  0.6311561113034188  0.7925508115865938  0.0435400480944566
  0.8694173701366594  0.2921394489459814  0.0429251870495904
  0.8701668725639706  0.2126524845827262  0.5411208063946660
  0.4432750872880433  0.8464654372419957  0.3787360019113137
  0.5531683931725695  0.3496738854877748  0.1242917731069326
  0.0514956137589380  0.1505894595822213  0.8761406983896620
  0.0536775452505296  0.3433826706292820  0.3769930580050911
  0.4472411531872709  0.6506909723507164  0.8759233186112496
  0.5528488867484427  0.1596834585599467  0.6212479050014963
  0.9453986409063830  0.6542901059720876  0.6227191020019731
  0.9485754819034113  0.8497177715042810  0.1240155572032293
  0.1355540575257095  0.2464797578932050  0.6254043125565474
  0.8592732455937906  0.7442807492828365  0.8765641488678568
  0.3610570552933083  0.7562901495802166  0.1245994924382714
  0.3630759689138188  0.7486715859998867  0.6222209405220482
  0.1410667521836544  0.2557340857908130  0.1233576524710713
  0.8640661089443569  0.7503348376147727  0.3748939019523689
  0.6379923342997387  0.2454361210563860  0.3774730530224346
  0.6391322032366915  0.2444555795017891  0.8756509561082098
  0.6313717115159108  0.7575104186564303  0.2153796102370720
  0.3686496217364237  0.2553949564126370  0.2871891016479537
  0.8640137480884320  0.2462604393379024  0.7127850102877389
  0.8717066650257834  0.2597980669403057  0.2140072974185827
  0.6315011772636794  0.7505627491717988  0.7130273321053906
  0.3686821542245937  0.2425899498427313  0.7852004740041849
  0.1287684731161818  0.7411239104248963  0.7858324256103444
  0.1352270430713034  0.7539640963548777  0.2875407156507492

             NaN             NaN             NaN
             NaN             NaN             NaN
             NaN             NaN             NaN
             NaN             NaN             NaN
             NaN             NaN             NaN
             NaN             NaN             NaN
             NaN             NaN             NaN
             NaN             NaN             NaN
             NaN             NaN             NaN
             NaN             NaN             NaN
             NaN             NaN             NaN
             NaN             NaN             NaN
             NaN             NaN             NaN
             NaN             NaN             NaN
             NaN             NaN             NaN
             NaN             NaN             NaN
             NaN             NaN             NaN
             NaN             NaN             NaN
             NaN             NaN             NaN
             NaN             NaN             NaN
             NaN             NaN             NaN
             NaN             NaN             NaN
             NaN             NaN             NaN
             NaN             NaN             NaN
             NaN             NaN             NaN
             NaN             NaN             NaN
             NaN             NaN             NaN
             NaN             NaN             NaN
             NaN             NaN             NaN
             NaN             NaN             NaN
             NaN             NaN             NaN
             NaN             NaN             NaN
             NaN             NaN             NaN
             NaN             NaN             NaN
             NaN             NaN             NaN
             NaN             NaN             NaN
             NaN             NaN             NaN
             NaN             NaN             NaN
             NaN             NaN             NaN
             NaN             NaN             NaN
             NaN             NaN             NaN
             NaN             NaN             NaN
             NaN             NaN             NaN
             NaN             NaN             NaN
             NaN             NaN             NaN
             NaN             NaN             NaN
             NaN             NaN             NaN
             NaN             NaN             NaN
             NaN             NaN             NaN
             NaN             NaN             NaN
             NaN             NaN             NaN
             NaN             NaN             NaN
             NaN             NaN             NaN
             NaN             NaN             NaN
             NaN             NaN             NaN
             NaN             NaN             NaN
             NaN             NaN             NaN
             NaN             NaN             NaN
             NaN             NaN             NaN
             NaN             NaN             NaN
             NaN             NaN             NaN
             NaN             NaN             NaN
             NaN             NaN             NaN
             NaN             NaN             NaN
             NaN             NaN             NaN
             NaN             NaN             NaN
             NaN             NaN             NaN
             NaN             NaN             NaN
             NaN             NaN             NaN
             NaN             NaN             NaN
             NaN             NaN             NaN
             NaN             NaN             NaN
             NaN             NaN             NaN
             NaN             NaN             NaN
             NaN             NaN             NaN
             NaN             NaN             NaN
             NaN             NaN             NaN
             NaN             NaN             NaN
             NaN             NaN             NaN
