user_Na5AlS4_Na5AlS4 NEB_v2 image 07
  1.0
     12.1026382039385112      0.0000000000000000      0.0000000000000007
     -0.0000000000000004      7.0938170788834114      0.0000000000000004
      0.0000000000000000      0.0000000000000000     21.6510149562332330
  Na  Al  S
  39  8  32
Direct
  0.3504750272716481  0.8977292586092354  0.4993512380970391
  0.6513454626642979  0.4075726158750196  0.0016207954783846
  0.1520451810054722  0.0926733816488391  0.9981504178437381
  0.1513615795991758  0.4057539884044851  0.5014503457389191
  0.3486665410280613  0.5926023798420587  0.9987074018152348
  0.6512807932651206  0.1022108306039603  0.5002091228834387
  0.8417369995801284  0.5881921713893518  0.4973793842519607
  0.8482776769484689  0.9075281422027246  0.0020049320617802
  0.2935896748814649  0.5464068458633061  0.3663079576858276
  0.7124256707124046  0.0524767751826193  0.1393304643281612
  0.2115015856993994  0.4479422870180007  0.8616510726757909
  0.2137625551692718  0.0476403084266062  0.3659539019646093
  0.2880930387019691  0.9471681909838764  0.8611720394758664
  0.7079059166774303  0.4564498892143852  0.6356982788710365
  0.7869678957558284  0.9527485341914080  0.6341492394482968
  0.7886222772508781  0.5526094314140940  0.1383218388826354
  0.4859447749536713  0.4836625025381658  0.5194145963685818
  0.4472095816701698  0.0636941219101710  0.0656282179890310
  0.9464168060044275  0.4370136677270260  0.9346111144210740
  0.9471685753310698  0.0564321001589854  0.4347070522186349
  0.5535305751964519  0.9366858213724553  0.9346519960976336
  0.0525139069697259  0.9403174573334615  0.5650746348336494
  0.0533431477410610  0.5629970493761846  0.0653375429524972
  0.5837640000064259  0.3813738128201198  0.2553224303611223
  0.4168228496391184  0.8824282926690495  0.2487731842521597
  0.9143048115401660  0.6176866825801559  0.7523726040664069
  0.9158933755104515  0.8857898820451238  0.2540555219881240
  0.5837629232166242  0.1212949187862556  0.7511245284217056
  0.4176059387567277  0.6152214351104572  0.7447255053248057
  0.0826654272098840  0.1150222227016313  0.7463364868589857
  0.0867047160667078  0.3826054804690213  0.2477692469160180
  0.8342346093404766  0.1053546548098300  0.8297313164177353
  0.1658213152393525  0.6111873865333509  0.6677288698001355
  0.6583506185684747  0.8642895130912890  0.3397470937811375
  0.6641041902598074  0.6064624395306611  0.8296426836774845
  0.8342257618758541  0.3864845286509020  0.3320490339174672
  0.1653934419933648  0.8944079885753793  0.1703973284540832
  0.3362997953427004  0.3949276798049164  0.1705002388378804
  0.3384413950953781  0.1257364317839710  0.6628248268514736
  0.0400413739386032  0.8325049152459310  0.8739620980397800
  0.9559467113187236  0.3368756985613739  0.6255771831807145
  0.4576365000118603  0.1643353128869044  0.3759608371047282
  0.4584055936740497  0.3324325945956802  0.8732418244113531
  0.0437576037148837  0.6608495404706322  0.3745824320355740
  0.9602738719579474  0.1678827588606340  0.1260169866350346
  0.5417029026842753  0.6678350419962416  0.1272214743261915
  0.5423319610839237  0.8409960134233845  0.6243195719140950
  0.3691651438877666  0.2079197101714345  0.9569253873519095
  0.6378260100173462  0.7275826490966801  0.5419689351496134
  0.1304508652926074  0.7846257111455024  0.4587081299281509
  0.1308420876651209  0.7081424594744440  0.9570559670014188
  0.3589222857394835  0.2724460992630821  0.4580497548202306
  0.6311561113034181  0.7925508115865961  0.0435400480944568
  0.8694173701366613  0.2921394489459809  0.0429251870495906
  0.8701668725639679  0.2126524845827269  0.5411208063946643
  0.4432750872880442  0.8464654372419934  0.3787360019113117
  0.5531683931725702  0.3496738854877730  0.1242917731069307
  0.0514956137589347  0.1505894595822197  0.8761406983896628
  0.0536775452505323  0.3433826706292835  0.3769930580050904
  0.4472411531872678  0.6506909723507160  0.8759233186112479
  0.5528488867484413  0.1596834585599463  0.6212479050014929
  0.9453986409063864  0.6542901059720844  0.6227191020019730
  0.9485754819034145  0.8497177715042822  0.1240155572032260
  0.1355540575257071  0.2464797578932036  0.6254043125565500
  0.8592732455937927  0.7442807492828346  0.8765641488678585
  0.3610570552933081  0.7562901495802198  0.1245994924382704
  0.3630759689138190  0.7486715859998871  0.6222209405220516
  0.1410667521836553  0.2557340857908134  0.1233576524710746
  0.8640661089443553  0.7503348376147692  0.3748939019523668
  0.6379923342997398  0.2454361210563829  0.3774730530224351
  0.6391322032366924  0.2444555795017875  0.8756509561082064
  0.6313717115159142  0.7575104186564284  0.2153796102370694
  0.3686496217364262  0.2553949564126378  0.2871891016479531
  0.8640137480884335  0.2462604393378999  0.7127850102877406
  0.8717066650257864  0.2597980669403085  0.2140072974185797
  0.6315011772636765  0.7505627491717977  0.7130273321053897
  0.3686821542245917  0.2425899498427314  0.7852004740041862
  0.1287684731161822  0.7411239104248974  0.7858324256103421
  0.1352270430713006  0.7539640963548749  0.2875407156507457
