&Control
        calculation = 'relax'
        prefix = 'ceo2'
/
&System
        ibrav =1 
	A=5.467450
	nat =12 
        ntyp = 2
        ecutwfc =47 
        ecutrho =323 
/

&Electrons
/
&Ions
/
ATOMIC_SPECIES
	O 16.01	O.pbe-n-kjpaw_psl.1.0.0.UPF
	Ce 140.116 Ce.pbe-spdn-kjpaw_psl.1.0.0.UPF
ATOMIC_POSITIONS crystal
Ce 0.000000 0.000000 0.000000
Ce 0.000000 0.500000 0.500000 
Ce 0.500000 0.000000 0.500000
Ce 0.500000 0.500000 0.000000 
O 0.250000 0.250000 0.750000 
O 0.250000 0.750000 0.750000 
O 0.250000 0.750000 0.250000 
O 0.250000 0.250000 0.250000 
O 0.750000 0.250000 0.250000 
O 0.750000 0.750000 0.250000 
O 0.750000 0.750000 0.750000 
O 0.750000 0.250000 0.750000 
K_POINTS gamma
