Na8 Zn8 S12                             
   1.0000000000000000     
     9.3122781482281276    0.0073281730721024    3.3123734096051543
     0.0243890185187955    9.3122483592411829    3.3123768320602953
     0.0013924735850753    0.0013899457027210    6.7332756502099969
   Na   Zn   S 
     8     8    12
Direct
  0.8120608431162495  0.9839799092977657  0.6278281897184783
  0.0160201007022494  0.1879392168837413  0.8721719502815048
  0.1879391468837497  0.0160198407022349  0.3721718502815321
  0.9839801592977437  0.8120607831162587  0.1278280297184935
  0.7178317411515494  0.2821682688484444  0.7500000900000288
  0.2821683288484564  0.7178317711515518  0.2500000599999694
  0.4305497659192596  0.5694500840807351  0.7500001999999739
  0.5694500640807405  0.4305499159192649  0.2500000300000309
  0.3618454928200734  0.2091751302231799  0.7985659512538277
  0.7908245197768196  0.6381545171798777  0.7014339787464223
  0.6381549171799250  0.7908250197768183  0.2014337087461726
  0.2091751502231816  0.3618452628201254  0.2985660512535802
  0.0832456543702165  0.5498575984132401  0.7596213751035990
  0.4501424015867528  0.9167545256298197  0.7403784248962282
  0.9167544156297822  0.4501422815867571  0.2403787348963959
  0.5498575184132477  0.0832456043701839  0.2596214651037698
  0.2738227717911030  0.4222887764522412  0.5716027928411904
  0.5777111335477372  0.7261775082089343  0.9283970971587507
  0.7261770682088979  0.5777111535477601  0.4283969171588069
  0.4222888864522645  0.2738228117910637  0.0716031428412478
  0.5783732415157132  0.1461950443067437  0.5550781889999215
  0.8538047156932578  0.4216265884843153  0.9449218009998859
  0.4216265384842828  0.8538047156932436  0.4449219210000805
  0.1461953443067401  0.5783735715156837  0.0550779490001148
  0.0049996863427033  0.7680970654761329  0.5526793256910065
  0.2319037891236633  0.9950011282471181  0.9428642667124194
  0.9950012682470870  0.2319039191237380  0.4428641667121553
  0.7680960108763344  0.0049986617528788  0.0571361832875823

  0.00000000E+00  0.00000000E+00  0.00000000E+00
  0.00000000E+00  0.00000000E+00  0.00000000E+00
  0.00000000E+00  0.00000000E+00  0.00000000E+00
  0.00000000E+00  0.00000000E+00  0.00000000E+00
  0.00000000E+00  0.00000000E+00  0.00000000E+00
  0.00000000E+00  0.00000000E+00  0.00000000E+00
  0.00000000E+00  0.00000000E+00  0.00000000E+00
  0.00000000E+00  0.00000000E+00  0.00000000E+00
  0.00000000E+00  0.00000000E+00  0.00000000E+00
  0.00000000E+00  0.00000000E+00  0.00000000E+00
  0.00000000E+00  0.00000000E+00  0.00000000E+00
  0.00000000E+00  0.00000000E+00  0.00000000E+00
  0.00000000E+00  0.00000000E+00  0.00000000E+00
  0.00000000E+00  0.00000000E+00  0.00000000E+00
  0.00000000E+00  0.00000000E+00  0.00000000E+00
  0.00000000E+00  0.00000000E+00  0.00000000E+00
  0.00000000E+00  0.00000000E+00  0.00000000E+00
  0.00000000E+00  0.00000000E+00  0.00000000E+00
  0.00000000E+00  0.00000000E+00  0.00000000E+00
  0.00000000E+00  0.00000000E+00  0.00000000E+00
  0.00000000E+00  0.00000000E+00  0.00000000E+00
  0.00000000E+00  0.00000000E+00  0.00000000E+00
  0.00000000E+00  0.00000000E+00  0.00000000E+00
  0.00000000E+00  0.00000000E+00  0.00000000E+00
  0.00000000E+00  0.00000000E+00  0.00000000E+00
  0.00000000E+00  0.00000000E+00  0.00000000E+00
  0.00000000E+00  0.00000000E+00  0.00000000E+00
  0.00000000E+00  0.00000000E+00  0.00000000E+00
