Na8 Zn8 S12
1.0
   9.2250432870901111    0.0000000000000000    3.2754509128296956
   0.0169010463334496    9.2250270797353870    3.2754542705388827
   0.0000000000000000    0.0000000000000000    6.6621010500000004
Na Zn S
8 8 12
direct
   0.8121727399999999    0.9842945000000000    0.6273635200000000 Na
   0.0157055100000000    0.1878273200000000    0.8726366200000000 Na
   0.1878272500000000    0.0157052500000000    0.3726365200000000 Na
   0.9842947500000000    0.8121726800000000    0.1273633600000000 Na
   0.7178250700000000    0.2821749400000000    0.7500000900000000 Na
   0.2821750000000000    0.7178251000000000    0.2500000600000000 Na
   0.4306119300000000    0.5693879200000000    0.7500002000000000 Na
   0.5693878999999999    0.4306120800000000    0.2500000300000000 Na
   0.3620865200000000    0.2094094800000000    0.7983065499999999 Zn
   0.7905901700000000    0.6379134900000000    0.7016933800000000 Zn
   0.6379138900000000    0.7905906700000001    0.2016931100000000 Zn
   0.2094095000000000    0.3620862900000000    0.2983066500000000 Zn
   0.0835606800000000    0.5498809200000000    0.7595262100000000 Zn
   0.4501190800000000    0.9164395000000000    0.7404735900000000 Zn
   0.9164393900000000    0.4501189600000000    0.2404739000000000 Zn
   0.5498808400000000    0.0835606300000000    0.2595263000000000 Zn
   0.2735064000000000    0.4221792700000000    0.5718679000000000 S
   0.5778206400000000    0.7264938800000000    0.9281319900000000 S
   0.7264934400000000    0.5778206600000000    0.4281318100000000 S
   0.4221793800000000    0.2735064400000000    0.0718682500000000 S
   0.5784428900000000    0.1462865300000000    0.5551077100000000 S
   0.8537132300000000    0.4215569400000000    0.9448922800000000 S
   0.4215568900000000    0.8537132300000000    0.4448924000000000 S
   0.1462868300000000    0.5784432200000000    0.0551074700000000 S
   0.0049988500000000    0.7682587500000000    0.5569252600000000 S
   0.2317414400000000    0.9950013000000000    0.9430744700000000 S
   0.9950014400000000    0.2317415700000000    0.4430743700000000 S
   0.7682583600000000    0.0049984900000000    0.0569259800000000 S
