Na8 Zn8 S12                             
   1.0000000000000000     
     9.3122781482281276    0.0073281730721024    3.3123734096051543
     0.0243890185187955    9.3122483592411829    3.3123768320602953
     0.0013924735850753    0.0013899457027210    6.7332756502099969
   Na   Zn   S 
     8     8    12
Direct
  0.8120608431162474  0.9839799092977647  0.6278281897184749
  0.0160201007022495  0.1879392168837413  0.8721719502815054
  0.1879391468837518  0.0160198407022360  0.3721718502815287
  0.9839801592977437  0.8120607831162586  0.1278280297184929
  0.7178317411515501  0.2821682688484457  0.7500000900000277
  0.2821683288484558  0.7178317711515506  0.2500000599999705
  0.4305497659192630  0.5694500840807354  0.7500001999999735
  0.5694500640807372  0.4305499159192647  0.2500000300000314
  0.3618454928200734  0.2091751302231788  0.7985659512538295
  0.7908245197768209  0.6381545171798779  0.7014339787464218
  0.6381549171799249  0.7908250197768195  0.2014337087461709
  0.2091751502231802  0.3618452628201251  0.2985660512535807
  0.0832456543702155  0.5498575984132422  0.7596213751035967
  0.4501424015867510  0.9167545256298169  0.7403784248962263
  0.9167544156297832  0.4501422815867550  0.2403787348963983
  0.5498575184132496  0.0832456043701869  0.2596214651037715
  0.2738227717911029  0.4222887764522443  0.5716027928411871
  0.5777111335477386  0.7261775082089346  0.9283970971587473
  0.7261770682088979  0.5777111535477572  0.4283969171588101
  0.4222888864522630  0.2738228117910634  0.0716031428412513
  0.5783732415157149  0.1461950443067471  0.5550781889999237
  0.8538047156932553  0.4216265884843154  0.9449218009998839
  0.4216265384842811  0.8538047156932471  0.4449219210000782
  0.1461953443067424  0.5783735715156838  0.0550779490001167
  0.0049990217529139  0.7680964008762586  0.5571354632878415
  0.2319037891236621  0.9950011282471195  0.9428642667124185
  0.9950012682470889  0.2319039191237396  0.4428641667121565
  0.7680960108763355  0.0049986617528774  0.0571361832875832

  0.00000000E+00  0.00000000E+00  0.00000000E+00
  0.00000000E+00  0.00000000E+00  0.00000000E+00
  0.00000000E+00  0.00000000E+00  0.00000000E+00
  0.00000000E+00  0.00000000E+00  0.00000000E+00
  0.00000000E+00  0.00000000E+00  0.00000000E+00
  0.00000000E+00  0.00000000E+00  0.00000000E+00
  0.00000000E+00  0.00000000E+00  0.00000000E+00
  0.00000000E+00  0.00000000E+00  0.00000000E+00
  0.00000000E+00  0.00000000E+00  0.00000000E+00
  0.00000000E+00  0.00000000E+00  0.00000000E+00
  0.00000000E+00  0.00000000E+00  0.00000000E+00
  0.00000000E+00  0.00000000E+00  0.00000000E+00
  0.00000000E+00  0.00000000E+00  0.00000000E+00
  0.00000000E+00  0.00000000E+00  0.00000000E+00
  0.00000000E+00  0.00000000E+00  0.00000000E+00
  0.00000000E+00  0.00000000E+00  0.00000000E+00
  0.00000000E+00  0.00000000E+00  0.00000000E+00
  0.00000000E+00  0.00000000E+00  0.00000000E+00
  0.00000000E+00  0.00000000E+00  0.00000000E+00
  0.00000000E+00  0.00000000E+00  0.00000000E+00
  0.00000000E+00  0.00000000E+00  0.00000000E+00
  0.00000000E+00  0.00000000E+00  0.00000000E+00
  0.00000000E+00  0.00000000E+00  0.00000000E+00
  0.00000000E+00  0.00000000E+00  0.00000000E+00
  0.00000000E+00  0.00000000E+00  0.00000000E+00
  0.00000000E+00  0.00000000E+00  0.00000000E+00
  0.00000000E+00  0.00000000E+00  0.00000000E+00
  0.00000000E+00  0.00000000E+00  0.00000000E+00
