ALGO = Fast
BMIX = 1
EDIFF = 1e-05
IBRION = 0
ICHARG = 1
ISIF = 0
ISMEAR = 0
ISPIN = 1
ISYM = 0
KBLOCK = 100
LCHARG = False
LORBIT = 11
LPLANE = False
LREAL = True
LSCALU = False
LWAVE = True
MAXMIX = 20
NBLOCK = 1
NELM = 500
NELMIN = 4
NSIM = 4
NSW = 2500
POTIM = 1
PREC = Low
SIGMA = 0.05
SMASS = 0
TEBEG = 1000
TEEND = 1000
