Na5InS4 bottleneck ep10
  1.0
      6.8330688911791304     -0.0000000000000000     -0.1272470229470229
     -0.0000000000000005      8.8359252756919275      0.0000000000000005
     -0.0048172062806638      0.0000000000000000      7.8804846921668430
  Na  In  S
  9  2  8
Direct
  0.6564206737167959  0.5201632391502647  0.6649534867065697
  0.3435793262832041  0.4798367608497353  0.3350465132934302
  0.6564206737167959  0.9798367608497353  0.6649534867065697
  0.9749322541146215  0.2500000000000000  0.5287792724042972
  0.0250677458853787  0.7500000000000000  0.4712207275957027
  0.6691427694168121  0.2500000000000000  0.1607969958263111
  0.3308572305831879  0.7500000000000000  0.8392030041736889
  -0.0000000000000000  -0.0000000000000000  -0.0000000000000000
  -0.0000000000000000  0.5000000000000000  -0.0000000000000000
  0.6385400052884252  0.7500000000000000  0.1764359578024573
  0.3614599947115747  0.2500000000000000  0.8235640421975426
  0.7605656723461858  0.7500000000000000  0.8800385414340772
  0.2394343276538143  0.2500000000000000  0.1199614585659227
  0.2331814499801963  0.0190055243430650  0.6716689785082640
  0.7668185500198036  0.5190055243430650  0.3283310214917362
  0.7668185500198036  0.9809944756569350  0.3283310214917362
  0.2331814499801963  0.4809944756569350  0.6716689785082640
  0.7285168624784741  0.2500000000000000  0.8214930948932282
  0.2714831375215258  0.7500000000000000  0.1785069051067718
