user_Na5AlS4_Na5AlS4 NEB_v2 image 09    
   1.0000000000000000     
    12.1026382039385112    0.0000000000000000    0.0000000000000007
    -0.0000000000000004    7.0938170788834114    0.0000000000000004
     0.0000000000000000    0.0000000000000000   21.6510149562332330
   Na   Al   S 
    39     8    32
Direct
  0.3510605707772925  0.8979935753367414  0.4992086490012255
  0.6513663124979630  0.4077959124507302  0.0017339278353532
  0.1521973550529765  0.0927568986679574  0.9982247007989002
  0.1483323892093011  0.4034011680495624  0.5011176678464153
  0.3487720289520837  0.5928595790838145  0.9988633915109517
  0.6515795840374992  0.1023005843684857  0.5001326177538772
  0.8384896257176706  0.5852778975175639  0.4968614747830955
  0.8484858193307403  0.9076747402754393  0.0019978127558744
  0.2944111451075244  0.5479613310608684  0.3672490652904514
  0.7127595357745022  0.0525733341606553  0.1395359282423740
  0.2117066066458548  0.4479597955308066  0.8616834869973502
  0.2140361476701145  0.0478013478706245  0.3659589601280331
  0.2883349533381079  0.9470491106998082  0.8612021164545851
  0.7087179373667212  0.4576338837650908  0.6366947528687277
  0.7871418117105478  0.9523442561197513  0.6342017020776822
  0.7885935103238921  0.5527871095063190  0.1383289123583111
  0.4719539200784197  0.4677853120508999  0.5386388191858273
  0.4475033900718728  0.0640279029794897  0.0657522250056388
  0.9464706585518456  0.4370427896765392  0.9345863541590873
  0.9468934874107120  0.0549264483178931  0.4346416049280961
  0.5538210280045632  0.9368618705322405  0.9347834862735169
  0.0522539400689439  0.9386674432241975  0.5649885330744127
  0.0532740339948603  0.5629509638932220  0.0653292955022096
  0.5841736015361860  0.3803538354378873  0.2553756447493214
  0.4172692757330054  0.8849851994885398  0.2486783994527926
  0.9148951213555989  0.6171295296768378  0.7524671682903588
  0.9152156838894143  0.8859452889382382  0.2541911754564694
  0.5840667525237677  0.1231926344846315  0.7510957304485189
  0.4181589451955361  0.6136932397369890  0.7447034931898173
  0.0816566707496449  0.1148924988734379  0.7464350818456467
  0.0871671586341165  0.3824731563636234  0.2478705327954032
  0.8341889190018819  0.1051526273203720  0.8298428956210202
  0.1655939810788070  0.6096760621987443  0.6676604387184923
  0.6570153038335391  0.8595141337444900  0.3411626904431202
  0.6642416629215617  0.6070507550584594  0.8296308884208727
  0.8341170391012938  0.3854155888550892  0.3319360156498945
  0.1652662973588335  0.8941793770938204  0.1704763054220066
  0.3363814688182103  0.3958290728296774  0.1705608233947657
  0.3368337228477003  0.1201720594496649  0.6641952435596181
  0.0402585983954040  0.8325433692235933  0.8739578211680623
  0.9557777697677778  0.3355249060717398  0.6256194561692467
  0.4575594210113820  0.1673679072136309  0.3761004526809657
  0.4586034858982799  0.3325037161435418  0.8734834181047830
  0.0437792850566652  0.6598256563721634  0.3746732158522974
  0.9604460739074838  0.1680646885310608  0.1259979038810215
  0.5418553641140065  0.6681614191608460  0.1274889973611621
  0.5421635723904359  0.8436098998556005  0.6244406299273066
  0.3693708117813159  0.2080185193894692  0.9571380501484654
  0.6360949696193288  0.7275173453115187  0.5419688516714487
  0.1308755001951667  0.7835527878774471  0.4586344406449285
  0.1310031700354202  0.7081693235661604  0.9570572319423931
  0.3572829995938633  0.2726452582128402  0.4580866646128783
  0.6313447090550284  0.7928164260017923  0.0437799168375292
  0.8696141527566397  0.2922261459684705  0.0428863730565183
  0.8702629817428686  0.2111502652832939  0.5410773836992959
  0.4414032634599465  0.8499136230694830  0.3786798607643362
  0.5534535819383848  0.3500285333466095  0.1244442894065187
  0.0516257595033167  0.1505709400494837  0.8762043110305768
  0.0532460379613724  0.3423833234589893  0.3769340698868646
  0.4475068346423896  0.6507598749109818  0.8760454142006822
  0.5508809675071191  0.1627457723556915  0.6212715262538282
  0.9448721094977799  0.6529133459888499  0.6226014660470511
  0.9485698757096088  0.8499055381920471  0.1240639877695813
  0.1353709886173959  0.2447729141844377  0.6254323455801440
  0.8594860305574201  0.7441444833320148  0.8765452637548492
  0.3612685805233440  0.7569567185232273  0.1247531922655014
  0.3634310893149504  0.7458120154054697  0.6220508855398990
  0.1412510384955183  0.2558112221410553  0.1233385562916354
  0.8640502536485570  0.7489533380409625  0.3749915403910364
  0.6384582640274630  0.2428539618028225  0.3773194423630954
  0.6393794459152176  0.2447366486160760  0.8758038333761533
  0.6315026325858000  0.7577216108433902  0.2157093732825217
  0.3684930924302492  0.2582291794434042  0.2872826323980675
  0.8637657214501502  0.2459386260953593  0.7129259071742169
  0.8719630797872071  0.2602033469180753  0.2139306370837488
  0.6313297690452089  0.7529560045448989  0.7130922572335052
  0.3688052993600479  0.2426700001147495  0.7854846370823694
  0.1290773348961736  0.7413100519964146  0.7857669313786388
  0.1350042894886414  0.7537901112442000  0.2876487171563511

             NaN             NaN             NaN
             NaN             NaN             NaN
             NaN             NaN             NaN
             NaN             NaN             NaN
             NaN             NaN             NaN
             NaN             NaN             NaN
             NaN             NaN             NaN
             NaN             NaN             NaN
             NaN             NaN             NaN
             NaN             NaN             NaN
             NaN             NaN             NaN
             NaN             NaN             NaN
             NaN             NaN             NaN
             NaN             NaN             NaN
             NaN             NaN             NaN
             NaN             NaN             NaN
             NaN             NaN             NaN
             NaN             NaN             NaN
             NaN             NaN             NaN
             NaN             NaN             NaN
             NaN             NaN             NaN
             NaN             NaN             NaN
             NaN             NaN             NaN
             NaN             NaN             NaN
             NaN             NaN             NaN
             NaN             NaN             NaN
             NaN             NaN             NaN
             NaN             NaN             NaN
             NaN             NaN             NaN
             NaN             NaN             NaN
             NaN             NaN             NaN
             NaN             NaN             NaN
             NaN             NaN             NaN
             NaN             NaN             NaN
             NaN             NaN             NaN
             NaN             NaN             NaN
             NaN             NaN             NaN
             NaN             NaN             NaN
             NaN             NaN             NaN
             NaN             NaN             NaN
             NaN             NaN             NaN
             NaN             NaN             NaN
             NaN             NaN             NaN
             NaN             NaN             NaN
             NaN             NaN             NaN
             NaN             NaN             NaN
             NaN             NaN             NaN
             NaN             NaN             NaN
             NaN             NaN             NaN
             NaN             NaN             NaN
             NaN             NaN             NaN
             NaN             NaN             NaN
             NaN             NaN             NaN
             NaN             NaN             NaN
             NaN             NaN             NaN
             NaN             NaN             NaN
             NaN             NaN             NaN
             NaN             NaN             NaN
             NaN             NaN             NaN
             NaN             NaN             NaN
             NaN             NaN             NaN
             NaN             NaN             NaN
             NaN             NaN             NaN
             NaN             NaN             NaN
             NaN             NaN             NaN
             NaN             NaN             NaN
             NaN             NaN             NaN
             NaN             NaN             NaN
             NaN             NaN             NaN
             NaN             NaN             NaN
             NaN             NaN             NaN
             NaN             NaN             NaN
             NaN             NaN             NaN
             NaN             NaN             NaN
             NaN             NaN             NaN
             NaN             NaN             NaN
             NaN             NaN             NaN
             NaN             NaN             NaN
             NaN             NaN             NaN
