user_Na5AlS4_Na5AlS4 NEB_v2 image 09
  1.0
     12.1026382039385112      0.0000000000000000      0.0000000000000007
     -0.0000000000000004      7.0938170788834114      0.0000000000000004
      0.0000000000000000      0.0000000000000000     21.6510149562332330
  Na  Al  S
  39  8  32
Direct
  0.3510605707772923  0.8979935753367386  0.4992086490012253
  0.6513663124979662  0.4077959124507309  0.0017339278353546
  0.1521973550529731  0.0927568986679594  0.9982247007988989
  0.1483323892092993  0.4034011680495598  0.5011176678464171
  0.3487720289520840  0.5928595790838117  0.9988633915109535
  0.6515795840375018  0.1023005843684856  0.5001326177538765
  0.8384896257176717  0.5852778975175673  0.4968614747830968
  0.8484858193307372  0.9076747402754418  0.0019978127558740
  0.2944111451075222  0.5479613310608676  0.3672490652904526
  0.7127595357744991  0.0525733341606544  0.1395359282423715
  0.2117066066458516  0.4479597955308091  0.8616834869973479
  0.2140361476701161  0.0478013478706225  0.3659589601280363
  0.2883349533381097  0.9470491106998076  0.8612021164545846
  0.7087179373667238  0.4576338837650880  0.6366947528687296
  0.7871418117105480  0.9523442561197517  0.6342017020776854
  0.7885935103238917  0.5527871095063214  0.1383289123583079
  0.4719539200784207  0.4677853120508975  0.5386388191858258
  0.4475033900718745  0.0640279029794873  0.0657522250056407
  0.9464706585518440  0.4370427896765378  0.9345863541590860
  0.9468934874107100  0.0549264483178926  0.4346416049280941
  0.5538210280045616  0.9368618705322429  0.9347834862735181
  0.0522539400689468  0.9386674432241977  0.5649885330744127
  0.0532740339948605  0.5629509638932206  0.0653292955022113
  0.5841736015361826  0.3803538354378890  0.2553756447493225
  0.4172692757330046  0.8849851994885403  0.2486783994527893
  0.9148951213556017  0.6171295296768406  0.7524671682903595
  0.9152156838894153  0.8859452889382358  0.2541911754564687
  0.5840667525237707  0.1231926344846322  0.7510957304485160
  0.4181589451955366  0.6136932397369915  0.7447034931898199
  0.0816566707496419  0.1148924988734383  0.7464350818456462
  0.0871671586341143  0.3824731563636262  0.2478705327954036
  0.8341889190018839  0.1051526273203710  0.8298428956210188
  0.1655939810788048  0.6096760621987469  0.6676604387184926
  0.6570153038335399  0.8595141337444925  0.3411626904431234
  0.6642416629215591  0.6070507550584610  0.8296308884208721
  0.8341170391012915  0.3854155888550899  0.3319360156498959
  0.1652662973588340  0.8941793770938177  0.1704763054220068
  0.3363814688182127  0.3958290728296773  0.1705608233947624
  0.3368337228476980  0.1201720594496616  0.6641952435596195
  0.0402585983954038  0.8325433692235944  0.8739578211680611
  0.9557777697677743  0.3355249060717373  0.6256194561692437
  0.4575594210113785  0.1673679072136289  0.3761004526809674
  0.4586034858982814  0.3325037161435428  0.8734834181047854
  0.0437792850566686  0.6598256563721667  0.3746732158522988
  0.9604460739074872  0.1680646885310575  0.1259979038810199
  0.5418553641140069  0.6681614191608483  0.1274889973611655
  0.5421635723904364  0.8436098998555983  0.6244406299273099
  0.3693708117813143  0.2080185193894726  0.9571380501484638
  0.6360949696193255  0.7275173453115170  0.5419688516714481
  0.1308755001951659  0.7835527878774463  0.4586344406449315
  0.1310031700354206  0.7081693235661612  0.9570572319423941
  0.3572829995938617  0.2726452582128406  0.4580866646128772
  0.6313447090550290  0.7928164260017936  0.0437799168375282
  0.8696141527566421  0.2922261459684725  0.0428863730565217
  0.8702629817428698  0.2111502652832930  0.5410773836992943
  0.4414032634599460  0.8499136230694831  0.3786798607643351
  0.5534535819383865  0.3500285333466070  0.1244442894065173
  0.0516257595033161  0.1505709400494832  0.8762043110305775
  0.0532460379613754  0.3423833234589873  0.3769340698868640
  0.4475068346423879  0.6507598749109826  0.8760454142006835
  0.5508809675071170  0.1627457723556922  0.6212715262538273
  0.9448721094977799  0.6529133459888494  0.6226014660470541
  0.9485698757096056  0.8499055381920472  0.1240639877695820
  0.1353709886173937  0.2447729141844363  0.6254323455801419
  0.8594860305574222  0.7441444833320128  0.8765452637548494
  0.3612685805233449  0.7569567185232259  0.1247531922655040
  0.3634310893149515  0.7458120154054678  0.6220508855398956
  0.1412510384955204  0.2558112221410576  0.1233385562916365
  0.8640502536485567  0.7489533380409658  0.3749915403910337
  0.6384582640274612  0.2428539618028246  0.3773194423630981
  0.6393794459152174  0.2447366486160749  0.8758038333761513
  0.6315026325857966  0.7577216108433913  0.2157093732825232
  0.3684930924302482  0.2582291794434031  0.2872826323980688
  0.8637657214501537  0.2459386260953605  0.7129259071742181
  0.8719630797872056  0.2602033469180729  0.2139306370837510
  0.6313297690452079  0.7529560045449010  0.7130922572335076
  0.3688052993600511  0.2426700001147484  0.7854846370823719
  0.1290773348961766  0.7413100519964164  0.7857669313786391
  0.1350042894886432  0.7537901112442025  0.2876487171563546
