Na10 In2 S8                             
   1.0000000000000000     
     6.8330688911791304   -0.0000000000000000   -0.1272470229470229
    -0.0000000000000005    8.8359252756919275    0.0000000000000005
    -0.0048172062806638    0.0000000000000000    7.8804846921668430
   Na   In   S 
    10     2     8
Direct
  0.6564206737167950  0.5201632391502642  0.6649534867065725
  0.3435793262832050  0.0201632391502642  0.3350465132934275
  0.3435793262832050  0.4798367608497358  0.3350465132934275
  0.6564206737167950  0.9798367608497358  0.6649534867065725
  0.9749322541146199  0.2500000000000000  0.5287792724043001
  0.0250677458853801  0.7500000000000000  0.4712207275956999
  0.6691427694168155  0.2500000000000000  0.1607969958263098
  0.3308572305831845  0.7500000000000000  0.8392030041736902
  0.0000000000000000  0.0000000000000000  0.0000000000000000
  0.0000000000000000  0.5000000000000000  0.0000000000000000
  0.6385400052884265  0.7500000000000000  0.1764359578024539
  0.3614599947115735  0.2500000000000000  0.8235640421975461
  0.7605656723461891  0.7500000000000000  0.8800385414340752
  0.2394343276538109  0.2500000000000000  0.1199614585659248
  0.2331814499801936  0.0190055243430649  0.6716689785082650
  0.7668185500198064  0.5190055243430649  0.3283310214917350
  0.7668185500198064  0.9809944756569351  0.3283310214917350
  0.2331814499801936  0.4809944756569351  0.6716689785082650
  0.7285141786626219  0.2500000000000000  0.8176861791159027
  0.2714831375215283  0.7500000000000000  0.1785069051067723

  0.00000000E+00  0.00000000E+00  0.00000000E+00
  0.00000000E+00  0.00000000E+00  0.00000000E+00
  0.00000000E+00  0.00000000E+00  0.00000000E+00
  0.00000000E+00  0.00000000E+00  0.00000000E+00
  0.00000000E+00  0.00000000E+00  0.00000000E+00
  0.00000000E+00  0.00000000E+00  0.00000000E+00
  0.00000000E+00  0.00000000E+00  0.00000000E+00
  0.00000000E+00  0.00000000E+00  0.00000000E+00
  0.00000000E+00  0.00000000E+00  0.00000000E+00
  0.00000000E+00  0.00000000E+00  0.00000000E+00
  0.00000000E+00  0.00000000E+00  0.00000000E+00
  0.00000000E+00  0.00000000E+00  0.00000000E+00
  0.00000000E+00  0.00000000E+00  0.00000000E+00
  0.00000000E+00  0.00000000E+00  0.00000000E+00
  0.00000000E+00  0.00000000E+00  0.00000000E+00
  0.00000000E+00  0.00000000E+00  0.00000000E+00
  0.00000000E+00  0.00000000E+00  0.00000000E+00
  0.00000000E+00  0.00000000E+00  0.00000000E+00
  0.00000000E+00  0.00000000E+00  0.00000000E+00
  0.00000000E+00  0.00000000E+00  0.00000000E+00
