&Control
	calculation = 'relax'
	prefix = 'co2'
/
&System
	ibrav =1 
	A = 20 
	nat = 3
	ntyp =2 
	ecutwfc =47 
/

&Electrons
/
&Ions
/
ATOMIC_SPECIES
	C 12.01 C.pbe-n-kjpaw_psl.1.0.0.UPF
	O 16.01 O.pbe-n-kjpaw_psl.1.0.0.UPF
ATOMIC_POSITIONS angstrom
O	3.152	2	2
O	0.848	2	2
C	2	2	2
K_POINTS gamma

