Na Al S                                 
   1.0000000000000000     
    12.1026382039385112    0.0000000000000000    0.0000000000000007
    -0.0000000000000004    7.0938170788834114    0.0000000000000004
     0.0000000000000000    0.0000000000000000   21.6510149562332330
   Na   Al   S 
    39     8    32
Direct
  0.3477526902167867  0.9081317760262948  0.4986665695869235
  0.6447096575749001  0.4058088542640590  0.9989788254279333
  0.1618986061490872  0.0926037271113032  0.9944109321442056
  0.1520909567351865  0.4076572643318173  0.4985428376655889
  0.3404195432568002  0.5967784794530644  0.9958699648238039
  0.6520479663248580  0.0908825969009470  0.5012412677202249
  0.8479773770262824  0.5907603111342254  0.5012259000228880
  0.8532248120847115  0.9063749123628000  0.9985345212001704
  0.2878150902948278  0.5508812345262299  0.3626816911112343
  0.7138647868451287  0.0491787721076520  0.1356074291733051
  0.2427786798509857  0.6482073555031320  0.8653029281592381
  0.2121818283893475  0.0506594714874211  0.3626013305362008
  0.7125185937420468  0.4486740926439481  0.6381658246500024
  0.7875552451718519  0.9481460062129656  0.6379723142132434
  0.7858008393005136  0.5487165852073801  0.1359119351090285
  0.5526987583949321  0.5612694348224494  0.4349475917811958
  0.4487696741673091  0.0595486620170291  0.0671219324993046
  0.9508037590878047  0.4391828901764896  0.9345795230931842
  0.9474329126795240  0.0609560750742659  0.4347707601774928
  0.5462695091657324  0.9405946427256211  0.9342637079049823
  0.4463515152782236  0.4379118376539424  0.5660863037547514
  0.0536933958800105  0.9372296123484531  0.5659118780219217
  0.0502716481023953  0.5584708077512417  0.0665370435696886
  0.5836749985273926  0.3849486661558217  0.2531636449255146
  0.4154156910490556  0.8837111549049865  0.2469081623641713
  0.9185852605231588  0.6156729749010026  0.7528892433659351
  0.9161731231212116  0.8841503781462663  0.2528962105434331
  0.5826399508426405  0.1182222701544120  0.7527334941195605
  0.4038789686797486  0.6377963121171746  0.7519634450762709
  0.0945677508180438  0.1305864737663569  0.7511999677744470
  0.0841908473662940  0.3832813160599997  0.2466857057141709
  0.8364350455582112  0.1035114009931917  0.8305640043590472
  0.1639913767379255  0.6073088796193176  0.6688070059494464
  0.6640455648306585  0.8931523519078084  0.3303865469592466
  0.6644037504945075  0.6050068686673455  0.8308995046765517
  0.8361055508176776  0.3926041351157039  0.3303785127161092
  0.1632118072271709  0.8908385379638517  0.1682626741869413
  0.3358022842033179  0.3914239588358868  0.1684986542870774
  0.3364072447114665  0.1089756881469413  0.6692034565503633
  0.0460303917909499  0.8328555940737274  0.8740402316119216
  0.9597965206666004  0.3315157625280776  0.6258019992860184
  0.4590539832877596  0.1666691681223611  0.3742513884581911
  0.4566860689623198  0.3318871379454720  0.8742139443352315
  0.0409703309050258  0.6664520504982576  0.3741140206442495
  0.9588893761302231  0.1653344567862050  0.1247643713301301
  0.5406196508436523  0.6660010939269441  0.1250285281930417
  0.5401558696841775  0.8321481377880460  0.6259086917879131
  0.3763410858246985  0.2156034097581809  0.9610882350007657
  0.6307601956235231  0.7068454890081100  0.5428333428140135
  0.1305478175632260  0.7914782479930054  0.4575089803659722
  0.1250145667197629  0.7108288802698866  0.9604836560434364
  0.3695310582234725  0.2917843568555369  0.4576487230278659
  0.6305433021838311  0.7901395917952314  0.0416510421154825
  0.8673474754929416  0.2896817623901526  0.0419690951049532
  0.8693774532759875  0.2066556394993952  0.5426145403798230
  0.4476218235009242  0.8487110847014563  0.3768346578938093
  0.5538168761159952  0.3483855517488550  0.1236250837913815
  0.0507792917273733  0.1489441141731760  0.8783685535555179
  0.0525326862746809  0.3484864277101352  0.3767252033129509
  0.4497039542016381  0.6474859659490875  0.8786836966402163
  0.5532411002492097  0.1501500257842281  0.6229028490038786
  0.9468955479462977  0.6495944121756949  0.6229195042397819
  0.9453819791022227  0.8477105238718536  0.1231815412231612
  0.1407548102086764  0.2457393697737515  0.6233089668294483
  0.8639163595897514  0.7405789971782539  0.8739739053033446
  0.3599420258843509  0.7530797107681266  0.1237247982848046
  0.3591522647665641  0.7469653992566023  0.6233348706195088
  0.1395835246360804  0.2523617569558141  0.1231270562685296
  0.8601285024886920  0.7546121863756881  0.3760403902518945
  0.6398733711179858  0.2549995493077475  0.3761234266973901
  0.6380940792533636  0.2397477253514566  0.8741641277349643
  0.6307314524878151  0.7583444621801760  0.2127891630206520
  0.3690475570642633  0.2575225779399659  0.2864021584714251
  0.8718763704249142  0.2415617123855114  0.7138618751092238
  0.8693188240687206  0.2575336390246932  0.2128235045733149
  0.6278151808112256  0.7426648771720181  0.7140859969805717
  0.3675626569162347  0.2495696851883622  0.7859838376601189
  0.1337567640986421  0.7459439121299951  0.7857611591280929
  0.1309432976992468  0.7572502792951923  0.2862555685416339

             NaN             NaN             NaN
             NaN             NaN             NaN
             NaN             NaN             NaN
             NaN             NaN             NaN
             NaN             NaN             NaN
             NaN             NaN             NaN
             NaN             NaN             NaN
             NaN             NaN             NaN
             NaN             NaN             NaN
             NaN             NaN             NaN
             NaN             NaN             NaN
             NaN             NaN             NaN
             NaN             NaN             NaN
             NaN             NaN             NaN
             NaN             NaN             NaN
             NaN             NaN             NaN
             NaN             NaN             NaN
             NaN             NaN             NaN
             NaN             NaN             NaN
             NaN             NaN             NaN
             NaN             NaN             NaN
             NaN             NaN             NaN
             NaN             NaN             NaN
             NaN             NaN             NaN
             NaN             NaN             NaN
             NaN             NaN             NaN
             NaN             NaN             NaN
             NaN             NaN             NaN
             NaN             NaN             NaN
             NaN             NaN             NaN
             NaN             NaN             NaN
             NaN             NaN             NaN
             NaN             NaN             NaN
             NaN             NaN             NaN
             NaN             NaN             NaN
             NaN             NaN             NaN
             NaN             NaN             NaN
             NaN             NaN             NaN
             NaN             NaN             NaN
             NaN             NaN             NaN
             NaN             NaN             NaN
             NaN             NaN             NaN
             NaN             NaN             NaN
             NaN             NaN             NaN
             NaN             NaN             NaN
             NaN             NaN             NaN
             NaN             NaN             NaN
             NaN             NaN             NaN
             NaN             NaN             NaN
             NaN             NaN             NaN
             NaN             NaN             NaN
             NaN             NaN             NaN
             NaN             NaN             NaN
             NaN             NaN             NaN
             NaN             NaN             NaN
             NaN             NaN             NaN
             NaN             NaN             NaN
             NaN             NaN             NaN
             NaN             NaN             NaN
             NaN             NaN             NaN
             NaN             NaN             NaN
             NaN             NaN             NaN
             NaN             NaN             NaN
             NaN             NaN             NaN
             NaN             NaN             NaN
             NaN             NaN             NaN
             NaN             NaN             NaN
             NaN             NaN             NaN
             NaN             NaN             NaN
             NaN             NaN             NaN
             NaN             NaN             NaN
             NaN             NaN             NaN
             NaN             NaN             NaN
             NaN             NaN             NaN
             NaN             NaN             NaN
             NaN             NaN             NaN
             NaN             NaN             NaN
             NaN             NaN             NaN
             NaN             NaN             NaN
