Na5AlS4 bottleneck NEB image 04
  1.0
     12.1026382039385112      0.0000000000000000      0.0000000000000007
     -0.0000000000000004      7.0938170788834114      0.0000000000000004
      0.0000000000000000      0.0000000000000000     21.6510149562332330
  Na  Al  S
  39  8  32
Direct
  0.3477526902167848  0.9081317760262980  0.4986665695869207
  0.6447096575748976  0.4058088542640605  0.9989788254279313
  0.1618986061490885  0.0926037271113023  0.9944109321442038
  0.1520909567351856  0.4076572643318157  0.4985428376655859
  0.3404195432568018  0.5967784794530672  0.9958699648238037
  0.6520479663248555  0.0908825969009468  0.5012412677202257
  0.8479773770262834  0.5907603111342267  0.5012259000228865
  0.8532248120847145  0.9063749123628002  0.9985345212001716
  0.2878150902948254  0.5508812345262273  0.3626816911112329
  0.7138647868451313  0.0491787721076528  0.1356074291733068
  0.2131462271819836  0.2894181053530249  0.0643431725228625
  0.2418142810583498  0.0094487216375279  0.1635610861725779
  0.7125185937420453  0.4486740926439491  0.6381658246500017
  0.7875552451718540  0.9481460062129634  0.6379723142132456
  0.7858008393005168  0.5487165852073814  0.1359119351090256
  0.5526987583949285  0.5612694348224490  0.4349475917811971
  0.4487696741673102  0.0595486620170306  0.0671219324993064
  0.9508037590878048  0.4391828901764868  0.9345795230931836
  0.9474329126795245  0.0609560750742632  0.4347707601774963
  0.5462695091657322  0.9405946427256218  0.9342637079049848
  0.4463515152782269  0.4379118376539410  0.5660863037547544
  0.0536933958800124  0.9372296123484516  0.5659118780219183
  0.0502716481023985  0.5584708077512406  0.0665370435696905
  0.5836749985273908  0.3849486661558186  0.2531636449255149
  0.4154156910490589  0.8837111549049843  0.2469081623641696
  0.9185852605231598  0.6156729749010020  0.7528892433659340
  0.9161731231212135  0.8841503781462652  0.2528962105434329
  0.5826399508426406  0.1182222701544093  0.7527334941195577
  0.4038789686797473  0.6377963121171749  0.7519634450762726
  0.0945677508180429  0.1305864737663565  0.7511999677744473
  0.0841908473662946  0.3832813160600032  0.2466857057141704
  0.8364350455582096  0.1035114009931898  0.8305640043590502
  0.1639913767379265  0.6073088796193177  0.6688070059494449
  0.6640455648306607  0.8931523519078083  0.3303865469592447
  0.6644037504945064  0.6050068686673441  0.8308995046765549
  0.8361055508176742  0.3926041351157039  0.3303785127161070
  0.1632118072271707  0.8908385379638486  0.1682626741869404
  0.3358022842033195  0.3914239588358902  0.1684986542870804
  0.3364072447114645  0.1089756881469407  0.6692034565503667
  0.0460303917909506  0.8328555940737294  0.8740402316119185
  0.9597965206665977  0.3315157625280789  0.6258019992860189
  0.4590539832877605  0.1666691681223641  0.3742513884581925
  0.4566860689623172  0.3318871379454720  0.8742139443352285
  0.0409703309050226  0.6664520504982586  0.3741140206442500
  0.9588893761302234  0.1653344567862024  0.1247643713301272
  0.5406196508436558  0.6660010939269453  0.1250285281930416
  0.5401558696841784  0.8321481377880456  0.6259086917879161
  0.3763410858246990  0.2156034097581800  0.9610882350007661
  0.6307601956235228  0.7068454890081083  0.5428333428140111
  0.1305478175632271  0.7914782479930058  0.4575089803659745
  0.1250145667197604  0.7108288802698860  0.9604836560434385
  0.3695310582234717  0.2917843568555345  0.4576487230278681
  0.6305433021838301  0.7901395917952283  0.0416510421154812
  0.8673474754929431  0.2896817623901500  0.0419690951049497
  0.8693774532759907  0.2066556394993921  0.5426145403798216
  0.4476218235009252  0.8487110847014592  0.3768346578938101
  0.5538168761159978  0.3483855517488542  0.1236250837913809
  0.0507792917273767  0.1489441141731783  0.8783685535555199
  0.0525326862746818  0.3484864277101378  0.3767252033129513
  0.4497039542016379  0.6474859659490892  0.8786836966402164
  0.5532411002492083  0.1501500257842300  0.6229028490038783
  0.9468955479462986  0.6495944121756928  0.6229195042397834
  0.9453819791022232  0.8477105238718562  0.1231815412231595
  0.1407548102086777  0.2457393697737519  0.6233089668294464
  0.8639163595897504  0.7405789971782530  0.8739739053033432
  0.3599420258843476  0.7530797107681280  0.1237247982848062
  0.3591522647665657  0.7469653992566003  0.6233348706195087
  0.1395835246360828  0.2523617569558153  0.1231270562685288
  0.8601285024886948  0.7546121863756879  0.3760403902518957
  0.6398733711179855  0.2549995493077483  0.3761234266973927
  0.6380940792533655  0.2397477253514561  0.8741641277349618
  0.6307314524878183  0.7583444621801794  0.2127891630206515
  0.3690475570642623  0.2575225779399664  0.2864021584714251
  0.8718763704249145  0.2415617123855105  0.7138618751092227
  0.8693188240687199  0.2575336390246897  0.2128235045733181
  0.6278151808112238  0.7426648771720208  0.7140859969805684
  0.3675626569162339  0.2495696851883601  0.7859838376601197
  0.1337567640986441  0.7459439121299930  0.7857611591280937
  0.1309432976992471  0.7572502792951893  0.2862555685416367
