H2O molecule in gas phase               
   1.0000000000000000     
    20.0000000000000000    0.0000000000000000    0.0000000000000000
     0.0000000000000000   20.0000000000000000    0.0000000000000000
     0.0000000000000000    0.0000000000000000   20.0000000000000000
   O    H 
     1     2
Direct
  0.5000000000000000  0.5000000000000000  0.4997872344729812
  0.5384271641634997  0.5000000000000000  0.5295413827635088
  0.4615728358365003  0.5000000000000000  0.5295413827635088

  0.00000000E+00  0.00000000E+00  0.00000000E+00
  0.00000000E+00  0.00000000E+00  0.00000000E+00
  0.00000000E+00  0.00000000E+00  0.00000000E+00
