H2O molecule in gas phase
1.0
  20.0000000000   0.0000000000   0.0000000000
   0.0000000000  20.0000000000   0.0000000000
   0.0000000000   0.0000000000  20.0000000000
O  H
1  2
Cartesian
  10.0000000000  10.0000000000  10.0000000000  ! O
  10.7547000000  10.0000000000  10.5887000000  ! H1
   9.2453000000  10.0000000000  10.5887000000  ! H2
