Na48 Si12 S48                           
   1.0000000000000000     
    41.5141357310227832   -0.0000000000000000    0.0000000000000025
    -0.0000000000000005    8.7962848345712050    0.0000000000000005
     0.0000000000000000    0.0000000000000000    6.9201687193646206
   Na   Si   S 
    48    12    48
Direct
  0.2431253538700133  0.0541737316627007  0.3912601991760880
  0.2568746461299867  0.9458262683372993  0.8912601991760880
  0.7568746461299867  0.5541737316627007  0.1087398008239120
  0.7431253538700133  0.4458262683372993  0.6087398008239120
  0.5770262298088582  0.0568208452044772  0.3895618699015557
  0.9229737701911418  0.9431791547955228  0.8895618699015557
  0.4229737701911418  0.5568208452044772  0.1104381300984443
  0.0770262298088582  0.4431791547955228  0.6104381300984443
  0.9067928782419159  0.0501614225572879  0.4023833170500382
  0.5932071217580841  0.9498385774427121  0.9023833170500382
  0.0932071217580841  0.5501614225572879  0.0976166829499618
  0.4067928782419159  0.4498385774427121  0.5976166829499618
  0.2435360446954320  0.4462711402456847  0.3874233893380534
  0.2564639553045680  0.5537288597543153  0.8874233893380534
  0.7564639553045680  0.9462711402456847  0.1125766106619466
  0.7435360446954320  0.0537288597543153  0.6125766106619466
  0.5763754432145518  0.4482190760801784  0.3858795641772684
  0.9236245567854482  0.5517809239198215  0.8902147185956935
  0.4236245567854482  0.9482190760801785  0.1097852814043065
  0.0763754432145518  0.0517809239198215  0.6097852814043065
  0.9117800579709581  0.4448078262650270  0.3890582089937453
  0.5882199420290419  0.5551921737349730  0.8890582089937453
  0.0882199420290419  0.9448078262650270  0.1109417910062547
  0.4117800579709581  0.0551921737349730  0.6109417910062547
  0.1507470971069083  0.2453050064169062  0.2341921315450008
  0.3492529028930846  0.7546949935830938  0.7341921315450008
  0.8492529028930917  0.7453050064169062  0.2658078684549992
  0.6507470971069083  0.2546949935830938  0.7658078684549992
  0.4851188595580496  0.2390488301582820  0.2443333076137151
  0.0148811404419504  0.7609511698417180  0.7443333076137151
  0.5148811404419504  0.7390488301582820  0.2556666923862849
  0.9851188595580496  0.2609511698417180  0.7556666923862849
  0.8181500434054456  0.2491551053044532  0.2431390687614297
  0.6818499565945544  0.7508448946955468  0.7431390687614297
  0.1818499565945544  0.7491551053044532  0.2568609312385703
  0.3181500434054456  0.2508448946955468  0.7568609312385703
  0.9928014556914064  0.0327188831220866  0.2326797052485503
  0.5071985443085936  0.9672811168779134  0.7326797052485503
  0.0071985443085936  0.5327188831220866  0.2673202947514497
  0.4928014556914064  0.4672811168779134  0.7673202947514497
  0.3330656443012359  0.9991419088881486  0.2442320092225287
  0.1669343556987641  0.0008580911118514  0.7442320092225287
  0.6669343556987641  0.4991419088881486  0.2557679907774713
  0.8330656443012359  0.5008580911118514  0.7557679907774713
  0.6707982609787422  0.9881592132196886  0.2620341289786765
  0.8292017390212578  0.0118407867803114  0.7620341289786765
  0.3292017390212578  0.4881592132196886  0.2379658710213235
  0.1707982609787422  0.5118407867803114  0.7379658710213235
  0.2215993958350140  0.2506956095878579  0.9706992622537243
  0.2784006041649860  0.7493043904121421  0.4706992622537243
  0.7784006041649860  0.7506956095878579  0.5293007377462757
  0.7215993958350140  0.2493043904121421  0.0293007377462757
  0.5541535559233495  0.2477693021262652  0.9686633478111730
  0.9458464440766505  0.7522306978737348  0.4686633478111730
  0.4458464440766434  0.7477693021262652  0.5313366521888270
  0.0541535559233566  0.2522306978737348  0.0313366521888270
  0.8876586843340846  0.2479383350499234  0.9720440863268891
  0.6123413156659154  0.7520616649500766  0.4720440863268891
  0.1123413156659154  0.7479383350499234  0.5279559136731109
  0.3876586843340846  0.2520616649500766  0.0279559136731109
  0.0312139442645005  0.0546048582756029  0.9123221493073075
  0.4687860557354995  0.9453951417243971  0.4123221493073075
  0.9687860557354995  0.5546048582756029  0.5876778506926925
  0.5312139442645005  0.4453951417243971  0.0876778506926925
  0.3658532232573535  0.0523048845117913  0.9071369126926214
  0.1341467767426465  0.9476951154882087  0.4071369126926143
  0.6341467767426465  0.5523048845117913  0.5928630873073786
  0.8658532232573535  0.4476951154882087  0.0928630873073786
  0.6989719413784385  0.0506285920318916  0.9131587805434691
  0.8010280586215615  0.9493714079681084  0.4131587805434691
  0.3010280586215615  0.5506285920318916  0.5868412194565309
  0.1989719413784385  0.4493714079681084  0.0868412194565309
  0.0626173474024725  0.7476335319428102  0.4403792450867954
  0.4373826525975275  0.2523664680571898  0.9403792450867954
  0.9373826525975275  0.2476335319428102  0.0596207549132046
  0.5626173474024725  0.7523664680571898  0.5596207549132046
  0.3964507026151267  0.7540087706869727  0.4358473339512869
  0.1035492973848733  0.2459912293130273  0.9358473339512869
  0.6035492973848733  0.2540087706869727  0.0641526660487131
  0.8964507026151267  0.7459912293130273  0.5641526660487131
  0.7287738748334718  0.7523643552473160  0.4366862917993046
  0.7712261251665282  0.2476356447526840  0.9366862917993046
  0.2712261251665282  0.2523643552473160  0.0633137082006954
  0.2287738748334718  0.7476356447526840  0.5633137082006954
  0.1344057686720959  0.5465324997031189  0.4136909803293420
  0.3655942313279041  0.4534675002968811  0.9136909803293420
  0.8655942313279041  0.0465324997031189  0.0863090196706580
  0.6344057686720959  0.9534675002968811  0.5863090196706580
  0.4665341713565425  0.5435521928993623  0.4167929223407256
  0.0334658286434575  0.4564478071006377  0.9167929223407256
  0.5334658286434575  0.0435521928993623  0.0832070776592744
  0.9665341713565425  0.9564478071006377  0.5832070776592744
  0.8001550661547228  0.5491638095954912  0.4156694266977894
  0.6998449338452772  0.4508361904045088  0.9156694266977894
  0.1998449338452772  0.0491638095954912  0.0843305733022106
  0.3001550661547157  0.9508361904045088  0.5843305733022106
  0.2145560249058107  0.2514109429719014  0.6637898423508233
  0.2854439750941893  0.7485890570280986  0.1637898423508233
  0.7854439750941893  0.7514109429719014  0.8362101576491767
  0.7145560249058107  0.2485890570280986  0.3362101576491767
  0.5466024078493774  0.2506959521874776  0.6625361244415444
  0.9533975921506226  0.7493040478125224  0.1625361244415444
  0.4533975921506226  0.7506959521874776  0.8374638755584556
  0.0466024078493774  0.2493040478125224  0.3374638755584485
  0.8793319209620236  0.2545142342010394  0.6663799416739025
  0.6206680790379764  0.7454857657989606  0.1663799416739025
  0.1206680790379764  0.7545142342010394  0.8336200583260975
  0.3793319209620236  0.2454857657989606  0.3336200583260975

  0.00000000E+00  0.00000000E+00  0.00000000E+00
  0.00000000E+00  0.00000000E+00  0.00000000E+00
  0.00000000E+00  0.00000000E+00  0.00000000E+00
  0.00000000E+00  0.00000000E+00  0.00000000E+00
  0.00000000E+00  0.00000000E+00  0.00000000E+00
  0.00000000E+00  0.00000000E+00  0.00000000E+00
  0.00000000E+00  0.00000000E+00  0.00000000E+00
  0.00000000E+00  0.00000000E+00  0.00000000E+00
  0.00000000E+00  0.00000000E+00  0.00000000E+00
  0.00000000E+00  0.00000000E+00  0.00000000E+00
  0.00000000E+00  0.00000000E+00  0.00000000E+00
  0.00000000E+00  0.00000000E+00  0.00000000E+00
  0.00000000E+00  0.00000000E+00  0.00000000E+00
  0.00000000E+00  0.00000000E+00  0.00000000E+00
  0.00000000E+00  0.00000000E+00  0.00000000E+00
  0.00000000E+00  0.00000000E+00  0.00000000E+00
  0.00000000E+00  0.00000000E+00  0.00000000E+00
  0.00000000E+00  0.00000000E+00  0.00000000E+00
  0.00000000E+00  0.00000000E+00  0.00000000E+00
  0.00000000E+00  0.00000000E+00  0.00000000E+00
  0.00000000E+00  0.00000000E+00  0.00000000E+00
  0.00000000E+00  0.00000000E+00  0.00000000E+00
  0.00000000E+00  0.00000000E+00  0.00000000E+00
  0.00000000E+00  0.00000000E+00  0.00000000E+00
  0.00000000E+00  0.00000000E+00  0.00000000E+00
  0.00000000E+00  0.00000000E+00  0.00000000E+00
  0.00000000E+00  0.00000000E+00  0.00000000E+00
  0.00000000E+00  0.00000000E+00  0.00000000E+00
  0.00000000E+00  0.00000000E+00  0.00000000E+00
  0.00000000E+00  0.00000000E+00  0.00000000E+00
  0.00000000E+00  0.00000000E+00  0.00000000E+00
  0.00000000E+00  0.00000000E+00  0.00000000E+00
  0.00000000E+00  0.00000000E+00  0.00000000E+00
  0.00000000E+00  0.00000000E+00  0.00000000E+00
  0.00000000E+00  0.00000000E+00  0.00000000E+00
  0.00000000E+00  0.00000000E+00  0.00000000E+00
  0.00000000E+00  0.00000000E+00  0.00000000E+00
  0.00000000E+00  0.00000000E+00  0.00000000E+00
  0.00000000E+00  0.00000000E+00  0.00000000E+00
  0.00000000E+00  0.00000000E+00  0.00000000E+00
  0.00000000E+00  0.00000000E+00  0.00000000E+00
  0.00000000E+00  0.00000000E+00  0.00000000E+00
  0.00000000E+00  0.00000000E+00  0.00000000E+00
  0.00000000E+00  0.00000000E+00  0.00000000E+00
  0.00000000E+00  0.00000000E+00  0.00000000E+00
  0.00000000E+00  0.00000000E+00  0.00000000E+00
  0.00000000E+00  0.00000000E+00  0.00000000E+00
  0.00000000E+00  0.00000000E+00  0.00000000E+00
  0.00000000E+00  0.00000000E+00  0.00000000E+00
  0.00000000E+00  0.00000000E+00  0.00000000E+00
  0.00000000E+00  0.00000000E+00  0.00000000E+00
  0.00000000E+00  0.00000000E+00  0.00000000E+00
  0.00000000E+00  0.00000000E+00  0.00000000E+00
  0.00000000E+00  0.00000000E+00  0.00000000E+00
  0.00000000E+00  0.00000000E+00  0.00000000E+00
  0.00000000E+00  0.00000000E+00  0.00000000E+00
  0.00000000E+00  0.00000000E+00  0.00000000E+00
  0.00000000E+00  0.00000000E+00  0.00000000E+00
  0.00000000E+00  0.00000000E+00  0.00000000E+00
  0.00000000E+00  0.00000000E+00  0.00000000E+00
  0.00000000E+00  0.00000000E+00  0.00000000E+00
  0.00000000E+00  0.00000000E+00  0.00000000E+00
  0.00000000E+00  0.00000000E+00  0.00000000E+00
  0.00000000E+00  0.00000000E+00  0.00000000E+00
  0.00000000E+00  0.00000000E+00  0.00000000E+00
  0.00000000E+00  0.00000000E+00  0.00000000E+00
  0.00000000E+00  0.00000000E+00  0.00000000E+00
  0.00000000E+00  0.00000000E+00  0.00000000E+00
  0.00000000E+00  0.00000000E+00  0.00000000E+00
  0.00000000E+00  0.00000000E+00  0.00000000E+00
  0.00000000E+00  0.00000000E+00  0.00000000E+00
  0.00000000E+00  0.00000000E+00  0.00000000E+00
  0.00000000E+00  0.00000000E+00  0.00000000E+00
  0.00000000E+00  0.00000000E+00  0.00000000E+00
  0.00000000E+00  0.00000000E+00  0.00000000E+00
  0.00000000E+00  0.00000000E+00  0.00000000E+00
  0.00000000E+00  0.00000000E+00  0.00000000E+00
  0.00000000E+00  0.00000000E+00  0.00000000E+00
  0.00000000E+00  0.00000000E+00  0.00000000E+00
  0.00000000E+00  0.00000000E+00  0.00000000E+00
  0.00000000E+00  0.00000000E+00  0.00000000E+00
  0.00000000E+00  0.00000000E+00  0.00000000E+00
  0.00000000E+00  0.00000000E+00  0.00000000E+00
  0.00000000E+00  0.00000000E+00  0.00000000E+00
  0.00000000E+00  0.00000000E+00  0.00000000E+00
  0.00000000E+00  0.00000000E+00  0.00000000E+00
  0.00000000E+00  0.00000000E+00  0.00000000E+00
  0.00000000E+00  0.00000000E+00  0.00000000E+00
  0.00000000E+00  0.00000000E+00  0.00000000E+00
  0.00000000E+00  0.00000000E+00  0.00000000E+00
  0.00000000E+00  0.00000000E+00  0.00000000E+00
  0.00000000E+00  0.00000000E+00  0.00000000E+00
  0.00000000E+00  0.00000000E+00  0.00000000E+00
  0.00000000E+00  0.00000000E+00  0.00000000E+00
  0.00000000E+00  0.00000000E+00  0.00000000E+00
  0.00000000E+00  0.00000000E+00  0.00000000E+00
  0.00000000E+00  0.00000000E+00  0.00000000E+00
  0.00000000E+00  0.00000000E+00  0.00000000E+00
  0.00000000E+00  0.00000000E+00  0.00000000E+00
  0.00000000E+00  0.00000000E+00  0.00000000E+00
  0.00000000E+00  0.00000000E+00  0.00000000E+00
  0.00000000E+00  0.00000000E+00  0.00000000E+00
  0.00000000E+00  0.00000000E+00  0.00000000E+00
  0.00000000E+00  0.00000000E+00  0.00000000E+00
  0.00000000E+00  0.00000000E+00  0.00000000E+00
  0.00000000E+00  0.00000000E+00  0.00000000E+00
  0.00000000E+00  0.00000000E+00  0.00000000E+00
  0.00000000E+00  0.00000000E+00  0.00000000E+00
