Na48 Si12 S48                           
   1.0000000000000000     
    41.5141357310227832   -0.0000000000000000    0.0000000000000025
    -0.0000000000000005    8.7962848345712050    0.0000000000000005
     0.0000000000000000    0.0000000000000000    6.9201687193646206
   Na   Si   S 
    48    12    48
Direct
  0.2431253538700159  0.0541737316626989  0.3912601991760845
  0.2568746461299842  0.9458262683373009  0.8912601991760845
  0.7568746461299840  0.5541737316626991  0.1087398008239154
  0.7431253538700160  0.4458262683373010  0.6087398008239155
  0.5770262298088593  0.0568208452044761  0.3895618699015568
  0.9229737701911407  0.9431791547955239  0.8895618699015568
  0.4229737701911409  0.5568208452044761  0.1104381300984432
  0.0770262298088591  0.4431791547955238  0.6104381300984432
  0.9067928782419140  0.0501614225572861  0.4023833170500394
  0.5932071217580860  0.9498385774427138  0.9023833170500395
  0.0932071217580864  0.5501614225572862  0.0976166829499606
  0.4067928782419136  0.4498385774427139  0.5976166829499605
  0.2435360446954287  0.4462711402456840  0.3874233893380538
  0.2564639553045713  0.5537288597543162  0.8874233893380536
  0.7564639553045713  0.9462711402456838  0.1125766106619462
  0.7435360446954287  0.0537288597543160  0.6125766106619464
  0.5763754432145517  0.4482190760801774  0.3902147185956932
  0.9236245567854483  0.5517809239198225  0.8902147185956935
  0.4236245567854482  0.9482190760801775  0.1097852814043068
  0.0763754432145519  0.0517809239198225  0.6097852814043065
  0.9117800579709596  0.4448078262650293  0.3890582089937426
  0.5882199420290404  0.5551921737349705  0.8890582089937422
  0.0882199420290406  0.9448078262650295  0.1109417910062576
  0.4117800579709593  0.0551921737349706  0.6109417910062578
  0.1507470971069116  0.2453050064169059  0.2341921315450030
  0.3492529028930882  0.7546949935830940  0.7341921315450032
  0.8492529028930883  0.7453050064169060  0.2658078684549969
  0.6507470971069117  0.2546949935830941  0.7658078684549968
  0.4851188595580492  0.2390488301582817  0.2443333076137180
  0.0148811404419509  0.7609511698417185  0.7443333076137179
  0.5148811404419509  0.7390488301582815  0.2556666923862820
  0.9851188595580491  0.2609511698417183  0.7556666923862821
  0.8181500434054451  0.2491551053044542  0.2431390687614330
  0.6818499565945549  0.7508448946955461  0.7431390687614329
  0.1818499565945552  0.7491551053044539  0.2568609312385670
  0.3181500434054449  0.2508448946955458  0.7568609312385671
  0.9928014556914077  0.0327188831220892  0.2326797052485484
  0.5071985443085923  0.9672811168779110  0.7326797052485486
  0.0071985443085925  0.5327188831220890  0.2673202947514516
  0.4928014556914074  0.4672811168779108  0.7673202947514514
  0.3330656443012354 -0.0008580911118496  0.2442320092225292
  0.1669343556987647  0.0008580911118494  0.7442320092225294
  0.6669343556987649  0.4991419088881505  0.2557679907774707
  0.8330656443012351  0.5008580911118496  0.7557679907774706
  0.6707982609787417  0.9881592132196857  0.2620341289786737
  0.8292017390212583  0.0118407867803143  0.7620341289786737
  0.3292017390212583  0.4881592132196857  0.2379658710213263
  0.1707982609787418  0.5118407867803143  0.7379658710213263
  0.2215993958350136  0.2506956095878558  0.9706992622537245
  0.2784006041649864  0.7493043904121441  0.4706992622537245
  0.7784006041649864  0.7506956095878559  0.5293007377462755
  0.7215993958350136  0.2493043904121442  0.0293007377462755
  0.5541535559233530  0.2477693021262677  0.9686633478111741
  0.9458464440766470  0.7522306978737323  0.4686633478111740
  0.4458464440766469  0.7477693021262677  0.5313366521888259
  0.0541535559233531  0.2522306978737323  0.0313366521888260
  0.8876586843340823  0.2479383350499238  0.9720440863268877
  0.6123413156659177  0.7520616649500763  0.4720440863268876
  0.1123413156659177  0.7479383350499237  0.5279559136731123
  0.3876586843340822  0.2520616649500763  0.0279559136731124
  0.0312139442645012  0.0546048582756051  0.9123221493073094
  0.4687860557354988  0.9453951417243950  0.4123221493073093
  0.9687860557354989  0.5546048582756050  0.5876778506926906
  0.5312139442645011  0.4453951417243949  0.0876778506926907
  0.3658532232573500  0.0523048845117925  0.9071369126926206
  0.1341467767426498  0.9476951154882074  0.4071369126926134
  0.6341467767426499  0.5523048845117926  0.5928630873073794
  0.8658532232573501  0.4476951154882075  0.0928630873073794
  0.6989719413784352  0.0506285920318932  0.9131587805434684
  0.8010280586215648  0.9493714079681065  0.4131587805434684
  0.3010280586215647  0.5506285920318935  0.5868412194565316
  0.1989719413784351  0.4493714079681067  0.0868412194565314
  0.0626173474024743  0.7476335319428095  0.4403792450867945
  0.4373826525975256  0.2523664680571904  0.9403792450867947
  0.9373826525975257  0.2476335319428095  0.0596207549132054
  0.5626173474024743  0.7523664680571905  0.5596207549132053
  0.3964507026151236  0.7540087706869731  0.4358473339512900
  0.1035492973848764  0.2459912293130271  0.9358473339512899
  0.6035492973848763  0.2540087706869730  0.0641526660487100
  0.8964507026151237  0.7459912293130269  0.5641526660487101
  0.7287738748334714  0.7523643552473130  0.4366862917993020
  0.7712261251665286  0.2476356447526870  0.9366862917993021
  0.2712261251665287  0.2523643552473131  0.0633137082006980
  0.2287738748334713  0.7476356447526870  0.5633137082006979
  0.1344057686720991  0.5465324997031165  0.4136909803293390
  0.3655942313279010  0.4534675002968835  0.9136909803293390
  0.8655942313279008  0.0465324997031165  0.0863090196706610
  0.6344057686720992  0.9534675002968835  0.5863090196706610
  0.4665341713565410  0.5435521928993647  0.4167929223407263
  0.0334658286434589  0.4564478071006352  0.9167929223407263
  0.5334658286434590  0.0435521928993648  0.0832070776592737
  0.9665341713565410  0.9564478071006353  0.5832070776592737
  0.8001550661547246  0.5491638095954895  0.4156694266977910
  0.6998449338452754  0.4508361904045103  0.9156694266977912
  0.1998449338452755  0.0491638095954896  0.0843305733022090
  0.3001550661547174  0.9508361904045105  0.5843305733022088
  0.2145560249058074  0.2514109429718999  0.6637898423508245
  0.2854439750941927  0.7485890570281000  0.1637898423508246
  0.7854439750941922  0.7514109429719000  0.8362101576491755
  0.7145560249058078  0.2485890570281000  0.3362101576491753
  0.5466024078493779  0.2506959521874789  0.6625361244415477
  0.9533975921506221  0.7493040478125208  0.1625361244415479
  0.4533975921506218  0.7506959521874792  0.8374638755584523
  0.0466024078493782  0.2493040478125211  0.3374638755584519
  0.8793319209620253  0.2545142342010369  0.6663799416739056
  0.6206680790379747  0.7454857657989626  0.1663799416739054
  0.1206680790379748  0.7545142342010374  0.8336200583260945
  0.3793319209620251  0.2454857657989631  0.3336200583260946

  0.00000000E+00  0.00000000E+00  0.00000000E+00
  0.00000000E+00  0.00000000E+00  0.00000000E+00
  0.00000000E+00  0.00000000E+00  0.00000000E+00
  0.00000000E+00  0.00000000E+00  0.00000000E+00
  0.00000000E+00  0.00000000E+00  0.00000000E+00
  0.00000000E+00  0.00000000E+00  0.00000000E+00
  0.00000000E+00  0.00000000E+00  0.00000000E+00
  0.00000000E+00  0.00000000E+00  0.00000000E+00
  0.00000000E+00  0.00000000E+00  0.00000000E+00
  0.00000000E+00  0.00000000E+00  0.00000000E+00
  0.00000000E+00  0.00000000E+00  0.00000000E+00
  0.00000000E+00  0.00000000E+00  0.00000000E+00
  0.00000000E+00  0.00000000E+00  0.00000000E+00
  0.00000000E+00  0.00000000E+00  0.00000000E+00
  0.00000000E+00  0.00000000E+00  0.00000000E+00
  0.00000000E+00  0.00000000E+00  0.00000000E+00
  0.00000000E+00  0.00000000E+00  0.00000000E+00
  0.00000000E+00  0.00000000E+00  0.00000000E+00
  0.00000000E+00  0.00000000E+00  0.00000000E+00
  0.00000000E+00  0.00000000E+00  0.00000000E+00
  0.00000000E+00  0.00000000E+00  0.00000000E+00
  0.00000000E+00  0.00000000E+00  0.00000000E+00
  0.00000000E+00  0.00000000E+00  0.00000000E+00
  0.00000000E+00  0.00000000E+00  0.00000000E+00
  0.00000000E+00  0.00000000E+00  0.00000000E+00
  0.00000000E+00  0.00000000E+00  0.00000000E+00
  0.00000000E+00  0.00000000E+00  0.00000000E+00
  0.00000000E+00  0.00000000E+00  0.00000000E+00
  0.00000000E+00  0.00000000E+00  0.00000000E+00
  0.00000000E+00  0.00000000E+00  0.00000000E+00
  0.00000000E+00  0.00000000E+00  0.00000000E+00
  0.00000000E+00  0.00000000E+00  0.00000000E+00
  0.00000000E+00  0.00000000E+00  0.00000000E+00
  0.00000000E+00  0.00000000E+00  0.00000000E+00
  0.00000000E+00  0.00000000E+00  0.00000000E+00
  0.00000000E+00  0.00000000E+00  0.00000000E+00
  0.00000000E+00  0.00000000E+00  0.00000000E+00
  0.00000000E+00  0.00000000E+00  0.00000000E+00
  0.00000000E+00  0.00000000E+00  0.00000000E+00
  0.00000000E+00  0.00000000E+00  0.00000000E+00
  0.00000000E+00  0.00000000E+00  0.00000000E+00
  0.00000000E+00  0.00000000E+00  0.00000000E+00
  0.00000000E+00  0.00000000E+00  0.00000000E+00
  0.00000000E+00  0.00000000E+00  0.00000000E+00
  0.00000000E+00  0.00000000E+00  0.00000000E+00
  0.00000000E+00  0.00000000E+00  0.00000000E+00
  0.00000000E+00  0.00000000E+00  0.00000000E+00
  0.00000000E+00  0.00000000E+00  0.00000000E+00
  0.00000000E+00  0.00000000E+00  0.00000000E+00
  0.00000000E+00  0.00000000E+00  0.00000000E+00
  0.00000000E+00  0.00000000E+00  0.00000000E+00
  0.00000000E+00  0.00000000E+00  0.00000000E+00
  0.00000000E+00  0.00000000E+00  0.00000000E+00
  0.00000000E+00  0.00000000E+00  0.00000000E+00
  0.00000000E+00  0.00000000E+00  0.00000000E+00
  0.00000000E+00  0.00000000E+00  0.00000000E+00
  0.00000000E+00  0.00000000E+00  0.00000000E+00
  0.00000000E+00  0.00000000E+00  0.00000000E+00
  0.00000000E+00  0.00000000E+00  0.00000000E+00
  0.00000000E+00  0.00000000E+00  0.00000000E+00
  0.00000000E+00  0.00000000E+00  0.00000000E+00
  0.00000000E+00  0.00000000E+00  0.00000000E+00
  0.00000000E+00  0.00000000E+00  0.00000000E+00
  0.00000000E+00  0.00000000E+00  0.00000000E+00
  0.00000000E+00  0.00000000E+00  0.00000000E+00
  0.00000000E+00  0.00000000E+00  0.00000000E+00
  0.00000000E+00  0.00000000E+00  0.00000000E+00
  0.00000000E+00  0.00000000E+00  0.00000000E+00
  0.00000000E+00  0.00000000E+00  0.00000000E+00
  0.00000000E+00  0.00000000E+00  0.00000000E+00
  0.00000000E+00  0.00000000E+00  0.00000000E+00
  0.00000000E+00  0.00000000E+00  0.00000000E+00
  0.00000000E+00  0.00000000E+00  0.00000000E+00
  0.00000000E+00  0.00000000E+00  0.00000000E+00
  0.00000000E+00  0.00000000E+00  0.00000000E+00
  0.00000000E+00  0.00000000E+00  0.00000000E+00
  0.00000000E+00  0.00000000E+00  0.00000000E+00
  0.00000000E+00  0.00000000E+00  0.00000000E+00
  0.00000000E+00  0.00000000E+00  0.00000000E+00
  0.00000000E+00  0.00000000E+00  0.00000000E+00
  0.00000000E+00  0.00000000E+00  0.00000000E+00
  0.00000000E+00  0.00000000E+00  0.00000000E+00
  0.00000000E+00  0.00000000E+00  0.00000000E+00
  0.00000000E+00  0.00000000E+00  0.00000000E+00
  0.00000000E+00  0.00000000E+00  0.00000000E+00
  0.00000000E+00  0.00000000E+00  0.00000000E+00
  0.00000000E+00  0.00000000E+00  0.00000000E+00
  0.00000000E+00  0.00000000E+00  0.00000000E+00
  0.00000000E+00  0.00000000E+00  0.00000000E+00
  0.00000000E+00  0.00000000E+00  0.00000000E+00
  0.00000000E+00  0.00000000E+00  0.00000000E+00
  0.00000000E+00  0.00000000E+00  0.00000000E+00
  0.00000000E+00  0.00000000E+00  0.00000000E+00
  0.00000000E+00  0.00000000E+00  0.00000000E+00
  0.00000000E+00  0.00000000E+00  0.00000000E+00
  0.00000000E+00  0.00000000E+00  0.00000000E+00
  0.00000000E+00  0.00000000E+00  0.00000000E+00
  0.00000000E+00  0.00000000E+00  0.00000000E+00
  0.00000000E+00  0.00000000E+00  0.00000000E+00
  0.00000000E+00  0.00000000E+00  0.00000000E+00
  0.00000000E+00  0.00000000E+00  0.00000000E+00
  0.00000000E+00  0.00000000E+00  0.00000000E+00
  0.00000000E+00  0.00000000E+00  0.00000000E+00
  0.00000000E+00  0.00000000E+00  0.00000000E+00
  0.00000000E+00  0.00000000E+00  0.00000000E+00
  0.00000000E+00  0.00000000E+00  0.00000000E+00
  0.00000000E+00  0.00000000E+00  0.00000000E+00
  0.00000000E+00  0.00000000E+00  0.00000000E+00
