Na40 Al8 S32                            
   1.0000000000000000     
    12.1026382039385112   -0.0000000000000000    0.0000000000000007
    -0.0000000000000004    7.0938170788834114    0.0000000000000004
     0.0000000000000000    0.0000000000000000   21.6510149562332330
   Na   Al   S 
    40     8    32
Direct
  0.3135093673511197  0.8980991287984763  0.5146902177610959
  0.5950541225588081  0.4360718031422944  0.0007605797769865
  0.1384961373077327  0.0811388283135821  1.0094186739236628
  0.1296078507162577  0.4115692253600954  0.5074066079749697
  0.3392267840869199  0.6333744436977192  1.0124270111520612
  0.5942666271404509  0.0948016184063093  0.5021055385833162
  0.8401656905939757  0.6678916516593025  0.4978814501894275
  0.8460065425128532  0.9532109132854554 -0.0026996226937254
  0.3068249201206701  0.5020874159240857  0.3744899809640299
  0.7378957144541259  0.0679125115221230  0.1483352812981389
  0.2206169317801564  0.4531149597095633  0.8513986444962608
  0.1892830561397452 -0.0023800308690639  0.3663942283778623
  0.2787698923538605  0.9881034441923778  0.8709245328872917
  0.7249744053598276  0.3841238498744868  0.6351894691902762
  0.7751112662157509  1.0178609238051097  0.6282700942273045
  0.7867371203118849  0.5716734505210493  0.1309476246790240
  0.5349817506217411  0.5052635844315914  0.4296545501211925
  0.4747147952840836  0.0633425791590476  0.0730852520378698
  0.9038249358585713  0.4356260599958869  0.9262094542120259
  0.9241251715119415  0.0663128567322719  0.4287717115725970
  0.6073587945740911  0.8977118780384400  0.9318585715302317
  0.3811349506783878  0.3873375090874585  0.5705357744248352
  0.0297051245132482  0.9848017912027707  0.5474437901162408
  0.0465482578294076  0.5764650563784099  0.0498953154948268
  0.6148400796915880  0.3073382294854208  0.2528786381072741
  0.4330884694176829  0.7919464328076228  0.2612334136024652
  0.9014141380235851  0.6424304518694555  0.7444910442191693
  0.9260900261862873  0.9185592638270824  0.2494809784416242
  0.5311165130371376  0.0831603212671106  0.7534630858077117
  0.4210754876074614  0.6085031522561632  0.7551096170621135
  0.0805606244251557  0.1549226450027831  0.7451458592963169
  0.1068954295608602  0.3854733024517160  0.2426743324720622
  0.8155821948950553  0.1133245306009660  0.8134170056619344
  0.1694923557725403  0.6910639810810434  0.6644463408681311
  0.6700589579884678  0.8707081059139783  0.3444339631152590
  0.6483163729633263  0.6086057123224500  0.8285027312634335
  0.8163567488570991  0.3932248484510147  0.3252923560882686
  0.1747501430645504  0.8880197223968420  0.1725819053635902
  0.3435782802751505  0.4204150837927011  0.1631628380491718
  0.3210568914523072  0.0394845887136855  0.6831426287093869
  0.0357812289593753  0.8625810860421107  0.8821761602874858
  0.9772497738061766  0.3755334439904440  0.6225099762048808
  0.4527641914162966  0.1399282868405267  0.3780120710032348
  0.4540935000585317  0.3301273762445461  0.8852258546529596
  0.0373336049796552  0.6207842090106939  0.3661745686329637
  0.9765772628338517  0.2001435498353558  0.1180614895893609
  0.5644597309481453  0.6912997378373702  0.1347734001287007
  0.5511574836892080  0.7723120298890414  0.6212881106374460
  0.3886053457946500  0.1905851312281835  0.9667635583628205
  0.6275279747591143  0.6653112747631844  0.5328110018840049
  0.1113276717807044  0.7466514176312559  0.4500541504742724
  0.1480496142316009  0.7282648170552504  0.9490867597372832
  0.3446451159725293  0.2362730229760380  0.4629931966755175
  0.6320595186052494  0.8305404018233031  0.0491573391965900
  0.8703779034115275  0.3326360232226714  0.0431872895622478
  0.8805350334997726  0.2381167185879157  0.5445768111064414
  0.4405842335595369  0.8274976326455753  0.3873945761627889
  0.5695494449194806  0.3694690940868339  0.1266116187102281
  0.0453924587857952  0.1803586411628692  0.8895556425706744
  0.0573796686784086  0.3008076762556474  0.3676234472236890
  0.4481435561681998  0.6797128500139626  0.8882052517307850
  0.5370393402111014  0.1255203060687720  0.6228240501371023
  0.9729944575052062  0.6822673810003363  0.6162146384717569
  0.9524074174234737  0.8861625635128546  0.1060989995615099
  0.1681457737482125  0.2469774112632196  0.6164958587041355
  0.8511072353747037  0.7737690458132687  0.8859029024682610
  0.3660954216145373  0.7605790413100447  0.1440940494100723
  0.3668615175201764  0.7142556925086435  0.6274324158128053
  0.1646623822302453  0.2806905279478010  0.1189130242778020
  0.8629072846706402  0.7229474342555017  0.3730612825019236
  0.6444113963752673  0.2345522987043004  0.3757177082582701
  0.6336466834720399  0.2278891031282168  0.8689686230182229
  0.6534331867033212  0.7884914933540790  0.2164749025898173
  0.3917103718833111  0.2548371924103673  0.2862993267767170
  0.8903795710886494  0.2344341547493206  0.7047721320522531
  0.9012026034064511  0.2834872334061229  0.2068320418591968
  0.6523227235218623  0.6990738398949099  0.7094697970611629
  0.3504402497871814  0.2567313179515343  0.7843795789126277
  0.1161652194152504  0.7707224253177274  0.7859191128787667
  0.1382630052254867  0.7417578222062534  0.2817127559594566

 -0.28858989E-02 -0.67361913E-02  0.27686634E-02
  0.18128949E-02  0.83244674E-02  0.33846090E-02
  0.42114241E-03  0.29298406E-02 -0.23437931E-02
  0.25188972E-03  0.52777092E-02 -0.58212055E-02
  0.15648951E-04  0.18371133E-02 -0.57495093E-03
  0.24842255E-02 -0.21888925E-02 -0.49131913E-02
  0.56736782E-02  0.28115627E-02  0.43054912E-03
 -0.28995720E-02  0.25360584E-02  0.27900996E-02
  0.13031442E-02 -0.23959141E-02  0.12760152E-02
 -0.13650766E-02 -0.26912620E-02 -0.38843166E-02
 -0.32851066E-02  0.13798364E-03  0.61802133E-02
 -0.11703964E-01 -0.24337726E-02 -0.44394791E-02
  0.11654415E-02 -0.40896731E-02  0.80439090E-03
  0.94090044E-02 -0.91560381E-02 -0.23654996E-02
 -0.40523651E-02  0.42712741E-02 -0.12532956E-02
 -0.49042349E-02 -0.68111064E-03  0.71869596E-02
  0.20591599E-02 -0.32608616E-02 -0.35635354E-02
  0.95583923E-02  0.41041673E-03  0.74947133E-02
  0.61560499E-02  0.49040508E-02  0.35542080E-02
 -0.79008757E-02  0.31615514E-03  0.29169323E-03
 -0.28787015E-02 -0.94631172E-02  0.22572570E-02
  0.26845223E-02  0.26413391E-02 -0.77994296E-02
 -0.18430844E-02 -0.88809340E-02  0.72267701E-02
 -0.38216011E-03  0.10388497E-02 -0.62686624E-02
 -0.17031557E-02  0.24945963E-02 -0.24771016E-02
 -0.10736798E-02 -0.47752485E-02 -0.19608884E-02
  0.81787748E-02  0.46557051E-02 -0.56654944E-02
  0.21424768E-02 -0.51362853E-02 -0.10421601E-02
  0.48126586E-02  0.82124298E-03 -0.50315900E-03
  0.29433082E-02 -0.62934159E-02 -0.92660069E-04
 -0.60423209E-02 -0.39609692E-02 -0.15707211E-02
 -0.99850215E-03  0.38042311E-02  0.93748013E-02
  0.76119188E-03  0.51506431E-02 -0.20091854E-02
  0.67293751E-03  0.34208002E-02 -0.26007726E-02
 -0.55819898E-03  0.59043352E-02 -0.33151669E-02
 -0.71380503E-02 -0.39065045E-03  0.26544292E-02
 -0.43048094E-02 -0.44108045E-02  0.31782636E-02
 -0.10828446E-02  0.63863141E-02  0.13004675E-02
 -0.12429101E-02 -0.96167190E-02  0.81141886E-03
  0.32819726E-02  0.13787400E-02 -0.48822071E-02
  0.63558325E-03  0.13997202E-02 -0.37559336E-02
  0.40102841E-02 -0.22053293E-02  0.12661236E-02
  0.92603687E-02  0.31766869E-02  0.43805664E-03
  0.57602019E-02  0.46777842E-02  0.89032020E-03
 -0.50573380E-02 -0.42112842E-02  0.24332082E-04
  0.16274262E-02 -0.74225743E-02 -0.27532340E-02
  0.67827726E-02 -0.87836286E-03 -0.32148204E-02
  0.79281726E-02  0.21948518E-02  0.15531590E-01
 -0.47185967E-02  0.48873109E-02  0.48299007E-02
 -0.27259589E-02 -0.60427645E-03  0.99158093E-02
  0.50428069E-02 -0.61856830E-03 -0.52585226E-02
 -0.39159030E-02  0.40104303E-02  0.24361838E-02
 -0.43975246E-02  0.63548739E-03  0.17656605E-02
  0.26614059E-02  0.21386046E-02  0.68364256E-02
  0.23821225E-02 -0.10490206E-03 -0.49959324E-02
 -0.46670272E-02  0.72559838E-03  0.27844792E-02
 -0.35750779E-02  0.21139543E-03  0.45577068E-02
 -0.42043840E-02 -0.43809625E-02  0.34888904E-02
  0.29612661E-02 -0.15243384E-02  0.25596976E-03
 -0.79299815E-03  0.80555191E-02 -0.67225443E-02
 -0.43711016E-02 -0.39422653E-02  0.31861323E-02
 -0.21993430E-02  0.11076194E-02 -0.42210767E-02
 -0.23491741E-02  0.48931527E-03 -0.77930967E-03
 -0.93407371E-05 -0.27604677E-02 -0.20316950E-02
  0.42949235E-03  0.77769613E-02 -0.55409076E-02
  0.24607152E-02 -0.60377960E-02 -0.44687870E-02
  0.16600846E-03 -0.30759364E-03 -0.21700268E-02
  0.41713839E-02 -0.62690200E-02 -0.80416537E-02
  0.43140854E-02  0.24274115E-02 -0.40403287E-02
 -0.78520560E-03  0.44074720E-02  0.79458764E-02
 -0.40647129E-02  0.58504131E-03 -0.16311141E-02
 -0.45005945E-02  0.23044216E-02  0.97836490E-03
  0.19064674E-02 -0.30770633E-02 -0.95510650E-02
 -0.64958041E-02  0.66934925E-02  0.10847814E-01
  0.51062533E-02  0.50172075E-02 -0.18017693E-02
 -0.13826152E-02 -0.23744560E-02 -0.10520895E-01
 -0.96534482E-02 -0.37272812E-02  0.43511706E-02
  0.68165750E-02 -0.27210338E-02  0.57034658E-04
  0.13129860E-02  0.33947057E-02  0.98269705E-02
  0.79896120E-03 -0.28356570E-02 -0.48037711E-02

           1
   2.0000000000000000     
 -0.31120725E+00 -0.11149318E-02 -0.28142195E-02 -0.30924268E+00
  0.31303246E+00  0.89619996E+00  0.51494597E+00
  0.59535371E+00  0.43841877E+00  0.10732311E-02
  0.13856573E+00  0.81964855E-01  0.92021674E-02
  0.12964948E+00  0.41305720E+00  0.50686888E+00
  0.33922937E+00  0.63389239E+00  0.12373900E-01
  0.59467715E+00  0.94184492E-01  0.50165169E+00
  0.84110328E+00  0.66868433E+00  0.49792122E+00
  0.84552738E+00  0.95392592E+00  0.99755811E+00
  0.30704027E+00  0.50141192E+00  0.37460785E+00
  0.73767013E+00  0.67153749E-01  0.14797647E+00
  0.22007406E+00  0.45315386E+00  0.85196954E+00
  0.18734894E+00  0.99693380E+00  0.36598413E+00
  0.27896249E+00  0.98695042E+00  0.87099884E+00
  0.72652927E+00  0.38154244E+00  0.63497096E+00
  0.77444160E+00  0.19065148E-01  0.62815432E+00
  0.78592668E+00  0.57148142E+00  0.13161152E+00
  0.53532203E+00  0.50434423E+00  0.42932537E+00
  0.47629435E+00  0.63458290E-01  0.73777572E-01
  0.90484224E+00  0.43700869E+00  0.92653777E+00
  0.92281953E+00  0.66401992E-01  0.42879866E+00
  0.60688308E+00  0.89504389E+00  0.93206708E+00
  0.38157858E+00  0.38808220E+00  0.56981531E+00
  0.29400549E-01  0.98229794E+00  0.54811136E+00
  0.46485105E-01  0.57675795E+00  0.49316251E-01
  0.61455863E+00  0.30804155E+00  0.25264982E+00
  0.43291104E+00  0.79060012E+00  0.26105228E+00
  0.90276571E+00  0.64374306E+00  0.74396770E+00
  0.92644408E+00  0.91711116E+00  0.24938471E+00
  0.53191182E+00  0.83391859E-01  0.75341661E+00
  0.42156188E+00  0.60672881E+00  0.75510106E+00
  0.79562111E-01  0.15380591E+00  0.74500076E+00
  0.10673042E+00  0.38654585E+00  0.24354032E+00
  0.81570798E+00  0.11477668E+00  0.81323141E+00
  0.16960356E+00  0.69202843E+00  0.66420610E+00
  0.66996671E+00  0.87237275E+00  0.34412773E+00
  0.64713679E+00  0.60849557E+00  0.82874793E+00
  0.81564537E+00  0.39198129E+00  0.32558595E+00
  0.17457120E+00  0.88982025E+00  0.17270204E+00
  0.34337289E+00  0.41770379E+00  0.16323779E+00
  0.32159925E+00  0.39873305E-01  0.68269164E+00
  0.35886261E-01  0.86297572E+00  0.88182921E+00
  0.97791249E+00  0.37491168E+00  0.62262693E+00
  0.45429450E+00  0.14082391E+00  0.37805254E+00
  0.45504539E+00  0.33144621E+00  0.88530810E+00
  0.36497864E-01  0.61959690E+00  0.36617682E+00
  0.97684620E+00  0.19805086E+00  0.11780716E+00
  0.56558061E+00  0.69105210E+00  0.13447643E+00
  0.55246764E+00  0.77293084E+00  0.62272283E+00
  0.38782558E+00  0.19196304E+00  0.96720972E+00
  0.62707750E+00  0.66514091E+00  0.53372697E+00
  0.11216101E+00  0.74647702E+00  0.44956840E+00
  0.14740250E+00  0.72939550E+00  0.94931180E+00
  0.34391841E+00  0.23645219E+00  0.46315630E+00
  0.63249932E+00  0.83114335E+00  0.49788850E-01
  0.87077156E+00  0.33260645E+00  0.42725793E-01
  0.87976379E+00  0.23832129E+00  0.54483403E+00
  0.43999344E+00  0.82755723E+00  0.38781559E+00
  0.56885466E+00  0.36823394E+00  0.12693390E+00
  0.45881818E-01  0.17992888E+00  0.88957929E+00
  0.57248623E-01  0.30307881E+00  0.36700246E+00
  0.44742122E+00  0.67860138E+00  0.88849957E+00
  0.53667589E+00  0.12583258E+00  0.62243413E+00
  0.97260625E+00  0.68240534E+00  0.61614265E+00
  0.95240587E+00  0.88538429E+00  0.10591132E+00
  0.16821675E+00  0.24917001E+00  0.61598402E+00
  0.85151388E+00  0.77206678E+00  0.88549010E+00
  0.36612286E+00  0.76049232E+00  0.14389359E+00
  0.36755085E+00  0.71248823E+00  0.62668957E+00
  0.16537530E+00  0.28137490E+00  0.11853980E+00
  0.86277753E+00  0.72419006E+00  0.37379528E+00
  0.64373969E+00  0.23471724E+00  0.37556704E+00
  0.63290295E+00  0.22853880E+00  0.86905900E+00
  0.65374824E+00  0.78762396E+00  0.21559263E+00
  0.39063692E+00  0.25672433E+00  0.28730139E+00
  0.89122340E+00  0.23584868E+00  0.70460569E+00
  0.90097412E+00  0.28281779E+00  0.20586018E+00
  0.65072746E+00  0.69802299E+00  0.70987173E+00
  0.35156671E+00  0.25596416E+00  0.78438485E+00
  0.11638219E+00  0.77167951E+00  0.78682687E+00
  0.13839504E+00  0.74095835E+00  0.28126901E+00
  0.00000000E+00  0.00000000E+00  0.00000000E+00
  0.00000000E+00  0.00000000E+00  0.00000000E+00
  0.00000000E+00  0.00000000E+00  0.00000000E+00
  0.00000000E+00  0.00000000E+00  0.00000000E+00
  0.00000000E+00  0.00000000E+00  0.00000000E+00
  0.00000000E+00  0.00000000E+00  0.00000000E+00
  0.00000000E+00  0.00000000E+00  0.00000000E+00
  0.00000000E+00  0.00000000E+00  0.00000000E+00
  0.00000000E+00  0.00000000E+00  0.00000000E+00
  0.00000000E+00  0.00000000E+00  0.00000000E+00
  0.00000000E+00  0.00000000E+00  0.00000000E+00
  0.00000000E+00  0.00000000E+00  0.00000000E+00
  0.00000000E+00  0.00000000E+00  0.00000000E+00
  0.00000000E+00  0.00000000E+00  0.00000000E+00
  0.00000000E+00  0.00000000E+00  0.00000000E+00
  0.00000000E+00  0.00000000E+00  0.00000000E+00
  0.00000000E+00  0.00000000E+00  0.00000000E+00
  0.00000000E+00  0.00000000E+00  0.00000000E+00
  0.00000000E+00  0.00000000E+00  0.00000000E+00
  0.00000000E+00  0.00000000E+00  0.00000000E+00
  0.00000000E+00  0.00000000E+00  0.00000000E+00
  0.00000000E+00  0.00000000E+00  0.00000000E+00
  0.00000000E+00  0.00000000E+00  0.00000000E+00
  0.00000000E+00  0.00000000E+00  0.00000000E+00
  0.00000000E+00  0.00000000E+00  0.00000000E+00
  0.00000000E+00  0.00000000E+00  0.00000000E+00
  0.00000000E+00  0.00000000E+00  0.00000000E+00
  0.00000000E+00  0.00000000E+00  0.00000000E+00
  0.00000000E+00  0.00000000E+00  0.00000000E+00
  0.00000000E+00  0.00000000E+00  0.00000000E+00
  0.00000000E+00  0.00000000E+00  0.00000000E+00
  0.00000000E+00  0.00000000E+00  0.00000000E+00
  0.00000000E+00  0.00000000E+00  0.00000000E+00
  0.00000000E+00  0.00000000E+00  0.00000000E+00
  0.00000000E+00  0.00000000E+00  0.00000000E+00
  0.00000000E+00  0.00000000E+00  0.00000000E+00
  0.00000000E+00  0.00000000E+00  0.00000000E+00
  0.00000000E+00  0.00000000E+00  0.00000000E+00
  0.00000000E+00  0.00000000E+00  0.00000000E+00
  0.00000000E+00  0.00000000E+00  0.00000000E+00
  0.00000000E+00  0.00000000E+00  0.00000000E+00
  0.00000000E+00  0.00000000E+00  0.00000000E+00
  0.00000000E+00  0.00000000E+00  0.00000000E+00
  0.00000000E+00  0.00000000E+00  0.00000000E+00
  0.00000000E+00  0.00000000E+00  0.00000000E+00
  0.00000000E+00  0.00000000E+00  0.00000000E+00
  0.00000000E+00  0.00000000E+00  0.00000000E+00
  0.00000000E+00  0.00000000E+00  0.00000000E+00
  0.00000000E+00  0.00000000E+00  0.00000000E+00
  0.00000000E+00  0.00000000E+00  0.00000000E+00
  0.00000000E+00  0.00000000E+00  0.00000000E+00
  0.00000000E+00  0.00000000E+00  0.00000000E+00
  0.00000000E+00  0.00000000E+00  0.00000000E+00
  0.00000000E+00  0.00000000E+00  0.00000000E+00
  0.00000000E+00  0.00000000E+00  0.00000000E+00
  0.00000000E+00  0.00000000E+00  0.00000000E+00
  0.00000000E+00  0.00000000E+00  0.00000000E+00
  0.00000000E+00  0.00000000E+00  0.00000000E+00
  0.00000000E+00  0.00000000E+00  0.00000000E+00
  0.00000000E+00  0.00000000E+00  0.00000000E+00
  0.00000000E+00  0.00000000E+00  0.00000000E+00
  0.00000000E+00  0.00000000E+00  0.00000000E+00
  0.00000000E+00  0.00000000E+00  0.00000000E+00
  0.00000000E+00  0.00000000E+00  0.00000000E+00
  0.00000000E+00  0.00000000E+00  0.00000000E+00
  0.00000000E+00  0.00000000E+00  0.00000000E+00
  0.00000000E+00  0.00000000E+00  0.00000000E+00
  0.00000000E+00  0.00000000E+00  0.00000000E+00
  0.00000000E+00  0.00000000E+00  0.00000000E+00
  0.00000000E+00  0.00000000E+00  0.00000000E+00
  0.00000000E+00  0.00000000E+00  0.00000000E+00
  0.00000000E+00  0.00000000E+00  0.00000000E+00
  0.00000000E+00  0.00000000E+00  0.00000000E+00
  0.00000000E+00  0.00000000E+00  0.00000000E+00
  0.00000000E+00  0.00000000E+00  0.00000000E+00
  0.00000000E+00  0.00000000E+00  0.00000000E+00
  0.00000000E+00  0.00000000E+00  0.00000000E+00
  0.00000000E+00  0.00000000E+00  0.00000000E+00
  0.00000000E+00  0.00000000E+00  0.00000000E+00
  0.00000000E+00  0.00000000E+00  0.00000000E+00
  0.00000000E+00  0.00000000E+00  0.00000000E+00
  0.00000000E+00  0.00000000E+00  0.00000000E+00
  0.00000000E+00  0.00000000E+00  0.00000000E+00
  0.00000000E+00  0.00000000E+00  0.00000000E+00
  0.00000000E+00  0.00000000E+00  0.00000000E+00
  0.00000000E+00  0.00000000E+00  0.00000000E+00
  0.00000000E+00  0.00000000E+00  0.00000000E+00
  0.00000000E+00  0.00000000E+00  0.00000000E+00
  0.00000000E+00  0.00000000E+00  0.00000000E+00
  0.00000000E+00  0.00000000E+00  0.00000000E+00
  0.00000000E+00  0.00000000E+00  0.00000000E+00
  0.00000000E+00  0.00000000E+00  0.00000000E+00
  0.00000000E+00  0.00000000E+00  0.00000000E+00
  0.00000000E+00  0.00000000E+00  0.00000000E+00
  0.00000000E+00  0.00000000E+00  0.00000000E+00
  0.00000000E+00  0.00000000E+00  0.00000000E+00
  0.00000000E+00  0.00000000E+00  0.00000000E+00
  0.00000000E+00  0.00000000E+00  0.00000000E+00
  0.00000000E+00  0.00000000E+00  0.00000000E+00
  0.00000000E+00  0.00000000E+00  0.00000000E+00
  0.00000000E+00  0.00000000E+00  0.00000000E+00
  0.00000000E+00  0.00000000E+00  0.00000000E+00
  0.00000000E+00  0.00000000E+00  0.00000000E+00
  0.00000000E+00  0.00000000E+00  0.00000000E+00
  0.00000000E+00  0.00000000E+00  0.00000000E+00
  0.00000000E+00  0.00000000E+00  0.00000000E+00
  0.00000000E+00  0.00000000E+00  0.00000000E+00
  0.00000000E+00  0.00000000E+00  0.00000000E+00
  0.00000000E+00  0.00000000E+00  0.00000000E+00
  0.00000000E+00  0.00000000E+00  0.00000000E+00
  0.00000000E+00  0.00000000E+00  0.00000000E+00
  0.00000000E+00  0.00000000E+00  0.00000000E+00
  0.00000000E+00  0.00000000E+00  0.00000000E+00
  0.00000000E+00  0.00000000E+00  0.00000000E+00
  0.00000000E+00  0.00000000E+00  0.00000000E+00
  0.00000000E+00  0.00000000E+00  0.00000000E+00
  0.00000000E+00  0.00000000E+00  0.00000000E+00
  0.00000000E+00  0.00000000E+00  0.00000000E+00
  0.00000000E+00  0.00000000E+00  0.00000000E+00
  0.00000000E+00  0.00000000E+00  0.00000000E+00
  0.00000000E+00  0.00000000E+00  0.00000000E+00
  0.00000000E+00  0.00000000E+00  0.00000000E+00
  0.00000000E+00  0.00000000E+00  0.00000000E+00
  0.00000000E+00  0.00000000E+00  0.00000000E+00
  0.00000000E+00  0.00000000E+00  0.00000000E+00
  0.00000000E+00  0.00000000E+00  0.00000000E+00
  0.00000000E+00  0.00000000E+00  0.00000000E+00
  0.00000000E+00  0.00000000E+00  0.00000000E+00
  0.00000000E+00  0.00000000E+00  0.00000000E+00
  0.00000000E+00  0.00000000E+00  0.00000000E+00
  0.00000000E+00  0.00000000E+00  0.00000000E+00
  0.00000000E+00  0.00000000E+00  0.00000000E+00
  0.00000000E+00  0.00000000E+00  0.00000000E+00
  0.00000000E+00  0.00000000E+00  0.00000000E+00
  0.00000000E+00  0.00000000E+00  0.00000000E+00
  0.00000000E+00  0.00000000E+00  0.00000000E+00
  0.00000000E+00  0.00000000E+00  0.00000000E+00
  0.00000000E+00  0.00000000E+00  0.00000000E+00
  0.00000000E+00  0.00000000E+00  0.00000000E+00
  0.00000000E+00  0.00000000E+00  0.00000000E+00
  0.00000000E+00  0.00000000E+00  0.00000000E+00
  0.00000000E+00  0.00000000E+00  0.00000000E+00
  0.00000000E+00  0.00000000E+00  0.00000000E+00
  0.00000000E+00  0.00000000E+00  0.00000000E+00
  0.00000000E+00  0.00000000E+00  0.00000000E+00
  0.00000000E+00  0.00000000E+00  0.00000000E+00
  0.00000000E+00  0.00000000E+00  0.00000000E+00
  0.00000000E+00  0.00000000E+00  0.00000000E+00
  0.00000000E+00  0.00000000E+00  0.00000000E+00
  0.00000000E+00  0.00000000E+00  0.00000000E+00
  0.00000000E+00  0.00000000E+00  0.00000000E+00
  0.00000000E+00  0.00000000E+00  0.00000000E+00
  0.00000000E+00  0.00000000E+00  0.00000000E+00
  0.00000000E+00  0.00000000E+00  0.00000000E+00
  0.00000000E+00  0.00000000E+00  0.00000000E+00
  0.00000000E+00  0.00000000E+00  0.00000000E+00
  0.00000000E+00  0.00000000E+00  0.00000000E+00
  0.00000000E+00  0.00000000E+00  0.00000000E+00
  0.00000000E+00  0.00000000E+00  0.00000000E+00
  0.00000000E+00  0.00000000E+00  0.00000000E+00
