Na40 Al8 S32                            
   1.0000000000000000     
    12.1026382039385112   -0.0000000000000000    0.0000000000000007
    -0.0000000000000004    7.0938170788834114    0.0000000000000004
     0.0000000000000000    0.0000000000000000   21.6510149562332330
   Na   Al   S 
    40     8    32
Direct
  0.2952998994230602  0.9712507817446683  0.5295666680216977
  0.6692278940517893  0.3864091040616829 -0.0044962855447734
  0.1631356433097018  0.1357429485251935  0.9920980208725940
  0.1547240033490293  0.4249469791685882  0.4998267907686385
  0.3411822486561375  0.5689063922767007  1.0094184840548006
  0.6503169592116429  0.0914133135374043  0.4982114412053646
  0.8363237076972816  0.5644452208167176  0.4768043229779263
  0.8774562192595323  0.8937115207548767  0.0108080788496675
  0.2757735131624293  0.5090481234920464  0.3615344389918704
  0.7440226413636690 -0.0165948671365906  0.1546901279823140
  0.2140337621760871  0.4586025509682253  0.8487581640055880
  0.1919612081367314  0.0476286286790934  0.3444850460461638
  0.2740960733728383  0.9326636012984416  0.8447531208187207
  0.6958963858596002  0.4887786791536075  0.6491710413668728
  0.7835917474110116  0.9269559733224516  0.6347528551409032
  0.7825475354455518  0.5179771512773278  0.1294453756070100
  0.5355416238424940  0.5604800840691615  0.4427575264072023
  0.4501905739206050  0.0537156421887205  0.0651835385752218
  0.9544079239614593  0.4521257220228077  0.9317353301968728
  0.9064642915672390  0.0280799380717770  0.4263407017346269
  0.5572156902106091  0.9484223759080890  0.9332210145209293
  0.4584661250680753  0.4369167232948465  0.5780514374997151
  0.0603140170681031  0.8987300683565344  0.5590615765054082
  0.0613790316606673  0.5663013637509585  0.0503367958316382
  0.5716872952580512  0.3375829731090794  0.2407639782579622
  0.4256441325058511  0.9028282244387745  0.2540959335191913
  0.8968524956455394  0.6948706931629230  0.7519423223720335
  0.9457847499305011  0.9259303895297053  0.2639710785118008
  0.6089362168859724  0.0946012848094701  0.7515983125960781
  0.4374971843349550  0.6080890071558107  0.7525581748345664
  0.0631007682955156  0.0907629936528249  0.7445222962804644
  0.0806979735780289  0.3808322515278708  0.2533827767830790
  0.8243917209064149  0.1087271251082954  0.8392820310080729
  0.1652963817843183  0.6261188440888324  0.6731635092761865
  0.6535555402349983  0.8773360884941982  0.3326656035943070
  0.6616114187073413  0.6523395274637224  0.8426248380937467
  0.7728268843251074  0.4632862087788991  0.2990259101519203
  0.2019577668461743  0.9624208821984530  0.1840141060427625
  0.3357886402090466  0.4229033741371537  0.1873018843617398
  0.3600249195132425  0.1579697045959293  0.6727742379588895
  0.0421988774865949  0.8295849885517612  0.8683010171882798
  0.9543434470227797  0.2870523185509115  0.6241768055994397
  0.4585695823030584  0.1800463761348861  0.3799718063891480
  0.4726734844972111  0.3701959817822003  0.8821455146904468
  0.0306584264976567  0.6318008168022873  0.3744153985468355
  0.9776104968786822  0.1685010960643982  0.1207985523880951
  0.5392167535507750  0.6492723929921337  0.1316432619594543
  0.5388623824185634  0.8238815588575549  0.6224349162478431
  0.3791777003738290  0.2101752290051686  0.9571332337852974
  0.6295436515237770  0.6932169840049648  0.5443406422964755
  0.1153051393073817  0.7476097082709148  0.4573378286196925
  0.1401264480911621  0.7177213810149230  0.9512322545800660
  0.3599195349926595  0.2817836746142765  0.4683516196056375
  0.6415770354355059  0.7883122459839101  0.0503929717006181
  0.8858236424386274  0.2939421885382367  0.0369135383890925
  0.8710618925375272  0.1945131942521532  0.5304336699425616
  0.4368024076357019  0.8657383869816185  0.3767514689950544
  0.5546390077813217  0.3356044102564645  0.1139666533590917
  0.0570065632989471  0.1481696146052663  0.8645951955180112
  0.0194147340669676  0.3218928440746592  0.3807285250425622
  0.4492745196266447  0.6770725752922965  0.8823636846677964
  0.5582137422116843  0.1666224107600641  0.6198971058093324
  0.9211705602037541  0.6066360055420834  0.6144528775207594
  0.9875684000244984  0.8599024011704843  0.1335050691001443
  0.1381765007474566  0.2108965488074885  0.6225910819069657
  0.8466764941606387  0.7710514949952000  0.8842678255350911
  0.3580531188079719  0.7727189856212044  0.1270656321214310
  0.3618003422240265  0.7637607361579747  0.6350911509147299
  0.1549094170053401  0.2749008795019037  0.1097892324405539
  0.8509707096737169  0.7410427117402250  0.3657833637519420
  0.6425564910475423  0.2720780202957709  0.3732977484737404
  0.6472976581243064  0.2680746813149653  0.8771448698048112
  0.6435012444012171  0.7217389441015568  0.2166662561692460
  0.3675590734477403  0.2545685049537239  0.2896032320256205
  0.8653987568385616  0.2183695782353024  0.7144826609220218
  0.8756566211540473  0.2531255660710744  0.2115375928557204
  0.6392589729202895  0.7620513848811512  0.7148715079955270
  0.3794387051692369  0.2555223790576742  0.7944077750269525
  0.1069570181206430  0.7614032744045339  0.7726951235056280
  0.1468464578429695  0.7301066080230703  0.2977229272447174

  0.42186277E-02 -0.36517268E-02 -0.35686565E-02
 -0.57728348E-04  0.50502623E-03  0.48345067E-02
 -0.24576594E-02 -0.13654096E-02 -0.16500971E-02
 -0.30145859E-02 -0.73126216E-02 -0.28364031E-05
  0.21413805E-02 -0.58640621E-02 -0.25859830E-02
  0.33348067E-03 -0.89537830E-02 -0.19358580E-02
  0.96626438E-02 -0.77366830E-03  0.61908496E-02
  0.44829308E-02  0.66797499E-03  0.56679430E-02
 -0.66775786E-02  0.19801001E-02  0.31661326E-02
  0.29218023E-02  0.13960762E-02  0.86755636E-02
  0.47550062E-03  0.53717870E-02 -0.34678960E-02
 -0.15239171E-03 -0.53694630E-02 -0.27275194E-03
  0.20755632E-02  0.46044872E-02  0.42924040E-02
  0.23337592E-02  0.17524780E-02 -0.64445932E-02
  0.70723280E-02 -0.27875868E-02 -0.29310549E-02
  0.29662995E-02 -0.57157147E-02 -0.61895672E-03
 -0.38370071E-02 -0.40956951E-02  0.28937479E-02
  0.32005302E-02 -0.55504760E-02 -0.90034308E-02
  0.20555690E-02  0.23937909E-02  0.42403896E-02
 -0.49398168E-02  0.23235382E-02 -0.78578665E-02
 -0.28085079E-02 -0.44708543E-02 -0.21647640E-02
  0.90412834E-02  0.55115077E-02  0.44707375E-02
 -0.20779582E-02  0.73526458E-02 -0.16555280E-02
 -0.17611528E-02 -0.52698182E-02  0.30281017E-03
  0.11409541E-02 -0.10858480E-01  0.71971554E-02
 -0.20929279E-03  0.34335173E-02 -0.45614477E-02
  0.50192578E-02  0.31320741E-03 -0.91091737E-03
 -0.30054994E-02 -0.47926560E-02  0.60793368E-02
  0.41104268E-02  0.53258193E-02  0.21373607E-02
  0.40169728E-03 -0.16729442E-04 -0.11620855E-02
  0.20220669E-02 -0.33679361E-02 -0.27068515E-02
 -0.43320423E-02  0.85401196E-02 -0.18243701E-02
 -0.24041913E-02  0.28038334E-02  0.20471051E-02
  0.28250309E-02 -0.21014087E-02  0.13189077E-02
  0.38502439E-02  0.49975132E-02  0.77999235E-02
 -0.60994553E-02  0.27949755E-02  0.21299862E-02
 -0.33656609E-02  0.70922676E-03  0.21780701E-02
 -0.83614289E-02  0.13725905E-02 -0.59295567E-02
 -0.76254649E-02  0.47322715E-02 -0.52698799E-03
 -0.96860643E-03  0.41438828E-02 -0.64098704E-02
 -0.49182276E-02  0.88136747E-03  0.30783198E-02
 -0.90419194E-04  0.24223107E-03  0.14049536E-02
 -0.36825817E-02 -0.61416787E-03 -0.59921172E-02
  0.56307526E-03 -0.10185650E-01 -0.26090879E-02
 -0.26577311E-02  0.76554150E-02 -0.30713927E-02
  0.66272877E-02  0.45943841E-02 -0.28163358E-02
 -0.47349080E-02 -0.44356443E-02  0.19692457E-02
  0.13517644E-02 -0.17915926E-02 -0.88294644E-02
  0.27486719E-02  0.50093665E-03  0.52241023E-02
 -0.22418965E-02  0.53015597E-02 -0.62030897E-02
  0.22277348E-03 -0.23385333E-02 -0.52939262E-03
  0.30043757E-02 -0.10853310E-02  0.25284332E-02
  0.78775831E-02 -0.38010847E-02 -0.30384736E-02
  0.26166072E-02 -0.49296843E-02  0.28835094E-02
  0.56959459E-03  0.52203223E-02  0.33418024E-02
 -0.65355629E-02  0.37493657E-02  0.42366556E-02
  0.30711369E-02  0.23713406E-03  0.36963240E-02
  0.48260977E-02 -0.14131591E-02  0.40568043E-02
  0.47073427E-02  0.72533910E-02  0.38195588E-02
 -0.17725010E-02  0.19694987E-02  0.85434415E-02
 -0.16771772E-02 -0.39174191E-02  0.30144674E-02
  0.12959964E-02 -0.22077231E-03 -0.51148642E-02
  0.74543221E-02 -0.40337897E-02  0.41645046E-02
 -0.42686875E-02  0.12368953E-02 -0.17427912E-02
 -0.35240229E-02 -0.67675018E-03 -0.43553237E-02
  0.37470554E-02  0.60278996E-02 -0.40554166E-02
  0.15595554E-02 -0.73254591E-02 -0.72194342E-03
  0.13663548E-02  0.78374869E-02  0.71646033E-02
 -0.28763889E-02  0.13373507E-02 -0.31328182E-02
  0.40132949E-02 -0.15998860E-02  0.29224162E-03
 -0.27224545E-02  0.20255053E-02  0.44321208E-02
 -0.63077865E-02 -0.11386353E-02 -0.15057022E-02
 -0.10240097E-02 -0.41852456E-03  0.30181723E-02
  0.37997105E-02 -0.28069820E-02 -0.64093906E-02
 -0.84046102E-02  0.13362978E-03 -0.17992282E-02
  0.86806392E-03 -0.91895928E-03  0.21078203E-02
  0.93598857E-03 -0.39753687E-02 -0.64584493E-02
 -0.45771256E-02  0.63598851E-02 -0.92333794E-02
 -0.61362386E-03 -0.28323389E-04  0.15133226E-02
 -0.76686271E-02  0.11738450E-02 -0.87373207E-03

           1
   2.0000000000000000     
 -0.44614615E+00 -0.13817164E-01 -0.13657751E-01 -0.43240869E+00
  0.29599704E+00  0.97022123E+00  0.52923702E+00
  0.66921835E+00  0.38655149E+00  0.99595030E+00
  0.16272951E+00  0.13535799E+00  0.99194559E+00
  0.15422583E+00  0.42288529E+00  0.49982653E+00
  0.34153612E+00  0.56725310E+00  0.91796054E-02
  0.65037207E+00  0.88888923E-01  0.49803262E+00
  0.83792049E+00  0.56422710E+00  0.47737620E+00
  0.87819704E+00  0.89389985E+00  0.11331652E-01
  0.27467002E+00  0.50960638E+00  0.36182691E+00
  0.74450548E+00  0.98379874E+00  0.15549153E+00
  0.21411234E+00  0.46011705E+00  0.84843782E+00
  0.19193602E+00  0.46114786E-01  0.34445985E+00
  0.27443907E+00  0.93396177E+00  0.84514963E+00
  0.69628205E+00  0.48927277E+00  0.64857573E+00
  0.78476047E+00  0.92617005E+00  0.63448210E+00
  0.78303773E+00  0.51636569E+00  0.12938820E+00
  0.53490755E+00  0.55932536E+00  0.44302483E+00
  0.45071947E+00  0.52150765E-01  0.64351852E-01
  0.95474761E+00  0.45280062E+00  0.93212703E+00
  0.90564797E+00  0.28735026E-01  0.42561484E+00
  0.55675158E+00  0.94716188E+00  0.93302105E+00
  0.45996023E+00  0.43847061E+00  0.57846442E+00
  0.59970628E-01  0.90080304E+00  0.55890865E+00
  0.61087995E-01  0.56481561E+00  0.50364768E-01
  0.57187584E+00  0.33452158E+00  0.24142881E+00
  0.42560955E+00  0.90379626E+00  0.25367457E+00
  0.89768194E+00  0.69495900E+00  0.75185818E+00
  0.94528808E+00  0.92457917E+00  0.26453265E+00
  0.60961548E+00  0.96102823E-01  0.75179575E+00
  0.43756357E+00  0.60808429E+00  0.75245083E+00
  0.63434921E-01  0.89813452E-01  0.74427225E+00
  0.79982090E-01  0.38324002E+00  0.25321425E+00
  0.82399442E+00  0.10951763E+00  0.83947113E+00
  0.16576323E+00  0.62552638E+00  0.67328534E+00
  0.65419181E+00  0.87874507E+00  0.33338612E+00
  0.66060346E+00  0.65312753E+00  0.84282159E+00
  0.77227070E+00  0.46348617E+00  0.29922711E+00
  0.20057601E+00  0.96280786E+00  0.18346637E+00
  0.33452851E+00  0.42423757E+00  0.18725320E+00
  0.35986485E+00  0.15913801E+00  0.67218213E+00
  0.41386125E-01  0.82983348E+00  0.86858538E+00
  0.95432850E+00  0.28712061E+00  0.62430659E+00
  0.45796102E+00  0.17987322E+00  0.37941829E+00
  0.47276653E+00  0.36732428E+00  0.88190450E+00
  0.30219228E-01  0.63395915E+00  0.37413168E+00
  0.97870568E+00  0.16979642E+00  0.12053839E+00
  0.53843429E+00  0.64802183E+00  0.13182517E+00
  0.53908577E+00  0.82337645E+00  0.62161930E+00
  0.37963193E+00  0.21031646E+00  0.95761581E+00
  0.62917317E+00  0.69471168E+00  0.54376764E+00
  0.11534195E+00  0.74695039E+00  0.45728893E+00
  0.14062293E+00  0.71741539E+00  0.95146582E+00
  0.36122133E+00  0.28071201E+00  0.46807094E+00
  0.64200944E+00  0.78692239E+00  0.50659334E-01
  0.88591777E+00  0.29541398E+00  0.37222235E-01
  0.86998187E+00  0.19557027E+00  0.53082503E+00
  0.43730992E+00  0.86580524E+00  0.37709291E+00
  0.55543654E+00  0.33520599E+00  0.11434140E+00
  0.57784467E-01  0.15021460E+00  0.86494803E+00
  0.19121823E-01  0.32244812E+00  0.38151772E+00
  0.44899736E+00  0.67596812E+00  0.88264214E+00
  0.55842791E+00  0.16656017E+00  0.61942462E+00
  0.92240241E+00  0.60549874E+00  0.61483757E+00
  0.98686299E+00  0.86025113E+00  0.13334408E+00
  0.13759414E+00  0.21070575E+00  0.62218876E+00
  0.84729571E+00  0.77275097E+00  0.88389321E+00
  0.35831084E+00  0.77065368E+00  0.12699894E+00
  0.36202614E+00  0.76597040E+00  0.63575298E+00
  0.15443408E+00  0.27527793E+00  0.10949984E+00
  0.85163392E+00  0.74059165E+00  0.36581036E+00
  0.64210660E+00  0.27264908E+00  0.37370716E+00
  0.64625528E+00  0.26775366E+00  0.87700578E+00
  0.64333202E+00  0.72162095E+00  0.21694506E+00
  0.36818699E+00  0.25377712E+00  0.28901117E+00
  0.86400987E+00  0.21840725E+00  0.71431646E+00
  0.87580007E+00  0.25286648E+00  0.21173230E+00
  0.63941365E+00  0.76093059E+00  0.71427491E+00
  0.37868232E+00  0.25731546E+00  0.79355485E+00
  0.10685561E+00  0.76139529E+00  0.77283492E+00
  0.14557919E+00  0.73043756E+00  0.29764222E+00
  0.00000000E+00  0.00000000E+00  0.00000000E+00
  0.00000000E+00  0.00000000E+00  0.00000000E+00
  0.00000000E+00  0.00000000E+00  0.00000000E+00
  0.00000000E+00  0.00000000E+00  0.00000000E+00
  0.00000000E+00  0.00000000E+00  0.00000000E+00
  0.00000000E+00  0.00000000E+00  0.00000000E+00
  0.00000000E+00  0.00000000E+00  0.00000000E+00
  0.00000000E+00  0.00000000E+00  0.00000000E+00
  0.00000000E+00  0.00000000E+00  0.00000000E+00
  0.00000000E+00  0.00000000E+00  0.00000000E+00
  0.00000000E+00  0.00000000E+00  0.00000000E+00
  0.00000000E+00  0.00000000E+00  0.00000000E+00
  0.00000000E+00  0.00000000E+00  0.00000000E+00
  0.00000000E+00  0.00000000E+00  0.00000000E+00
  0.00000000E+00  0.00000000E+00  0.00000000E+00
  0.00000000E+00  0.00000000E+00  0.00000000E+00
  0.00000000E+00  0.00000000E+00  0.00000000E+00
  0.00000000E+00  0.00000000E+00  0.00000000E+00
  0.00000000E+00  0.00000000E+00  0.00000000E+00
  0.00000000E+00  0.00000000E+00  0.00000000E+00
  0.00000000E+00  0.00000000E+00  0.00000000E+00
  0.00000000E+00  0.00000000E+00  0.00000000E+00
  0.00000000E+00  0.00000000E+00  0.00000000E+00
  0.00000000E+00  0.00000000E+00  0.00000000E+00
  0.00000000E+00  0.00000000E+00  0.00000000E+00
  0.00000000E+00  0.00000000E+00  0.00000000E+00
  0.00000000E+00  0.00000000E+00  0.00000000E+00
  0.00000000E+00  0.00000000E+00  0.00000000E+00
  0.00000000E+00  0.00000000E+00  0.00000000E+00
  0.00000000E+00  0.00000000E+00  0.00000000E+00
  0.00000000E+00  0.00000000E+00  0.00000000E+00
  0.00000000E+00  0.00000000E+00  0.00000000E+00
  0.00000000E+00  0.00000000E+00  0.00000000E+00
  0.00000000E+00  0.00000000E+00  0.00000000E+00
  0.00000000E+00  0.00000000E+00  0.00000000E+00
  0.00000000E+00  0.00000000E+00  0.00000000E+00
  0.00000000E+00  0.00000000E+00  0.00000000E+00
  0.00000000E+00  0.00000000E+00  0.00000000E+00
  0.00000000E+00  0.00000000E+00  0.00000000E+00
  0.00000000E+00  0.00000000E+00  0.00000000E+00
  0.00000000E+00  0.00000000E+00  0.00000000E+00
  0.00000000E+00  0.00000000E+00  0.00000000E+00
  0.00000000E+00  0.00000000E+00  0.00000000E+00
  0.00000000E+00  0.00000000E+00  0.00000000E+00
  0.00000000E+00  0.00000000E+00  0.00000000E+00
  0.00000000E+00  0.00000000E+00  0.00000000E+00
  0.00000000E+00  0.00000000E+00  0.00000000E+00
  0.00000000E+00  0.00000000E+00  0.00000000E+00
  0.00000000E+00  0.00000000E+00  0.00000000E+00
  0.00000000E+00  0.00000000E+00  0.00000000E+00
  0.00000000E+00  0.00000000E+00  0.00000000E+00
  0.00000000E+00  0.00000000E+00  0.00000000E+00
  0.00000000E+00  0.00000000E+00  0.00000000E+00
  0.00000000E+00  0.00000000E+00  0.00000000E+00
  0.00000000E+00  0.00000000E+00  0.00000000E+00
  0.00000000E+00  0.00000000E+00  0.00000000E+00
  0.00000000E+00  0.00000000E+00  0.00000000E+00
  0.00000000E+00  0.00000000E+00  0.00000000E+00
  0.00000000E+00  0.00000000E+00  0.00000000E+00
  0.00000000E+00  0.00000000E+00  0.00000000E+00
  0.00000000E+00  0.00000000E+00  0.00000000E+00
  0.00000000E+00  0.00000000E+00  0.00000000E+00
  0.00000000E+00  0.00000000E+00  0.00000000E+00
  0.00000000E+00  0.00000000E+00  0.00000000E+00
  0.00000000E+00  0.00000000E+00  0.00000000E+00
  0.00000000E+00  0.00000000E+00  0.00000000E+00
  0.00000000E+00  0.00000000E+00  0.00000000E+00
  0.00000000E+00  0.00000000E+00  0.00000000E+00
  0.00000000E+00  0.00000000E+00  0.00000000E+00
  0.00000000E+00  0.00000000E+00  0.00000000E+00
  0.00000000E+00  0.00000000E+00  0.00000000E+00
  0.00000000E+00  0.00000000E+00  0.00000000E+00
  0.00000000E+00  0.00000000E+00  0.00000000E+00
  0.00000000E+00  0.00000000E+00  0.00000000E+00
  0.00000000E+00  0.00000000E+00  0.00000000E+00
  0.00000000E+00  0.00000000E+00  0.00000000E+00
  0.00000000E+00  0.00000000E+00  0.00000000E+00
  0.00000000E+00  0.00000000E+00  0.00000000E+00
  0.00000000E+00  0.00000000E+00  0.00000000E+00
  0.00000000E+00  0.00000000E+00  0.00000000E+00
  0.00000000E+00  0.00000000E+00  0.00000000E+00
  0.00000000E+00  0.00000000E+00  0.00000000E+00
  0.00000000E+00  0.00000000E+00  0.00000000E+00
  0.00000000E+00  0.00000000E+00  0.00000000E+00
  0.00000000E+00  0.00000000E+00  0.00000000E+00
  0.00000000E+00  0.00000000E+00  0.00000000E+00
  0.00000000E+00  0.00000000E+00  0.00000000E+00
  0.00000000E+00  0.00000000E+00  0.00000000E+00
  0.00000000E+00  0.00000000E+00  0.00000000E+00
  0.00000000E+00  0.00000000E+00  0.00000000E+00
  0.00000000E+00  0.00000000E+00  0.00000000E+00
  0.00000000E+00  0.00000000E+00  0.00000000E+00
  0.00000000E+00  0.00000000E+00  0.00000000E+00
  0.00000000E+00  0.00000000E+00  0.00000000E+00
  0.00000000E+00  0.00000000E+00  0.00000000E+00
  0.00000000E+00  0.00000000E+00  0.00000000E+00
  0.00000000E+00  0.00000000E+00  0.00000000E+00
  0.00000000E+00  0.00000000E+00  0.00000000E+00
  0.00000000E+00  0.00000000E+00  0.00000000E+00
  0.00000000E+00  0.00000000E+00  0.00000000E+00
  0.00000000E+00  0.00000000E+00  0.00000000E+00
  0.00000000E+00  0.00000000E+00  0.00000000E+00
  0.00000000E+00  0.00000000E+00  0.00000000E+00
  0.00000000E+00  0.00000000E+00  0.00000000E+00
  0.00000000E+00  0.00000000E+00  0.00000000E+00
  0.00000000E+00  0.00000000E+00  0.00000000E+00
  0.00000000E+00  0.00000000E+00  0.00000000E+00
  0.00000000E+00  0.00000000E+00  0.00000000E+00
  0.00000000E+00  0.00000000E+00  0.00000000E+00
  0.00000000E+00  0.00000000E+00  0.00000000E+00
  0.00000000E+00  0.00000000E+00  0.00000000E+00
  0.00000000E+00  0.00000000E+00  0.00000000E+00
  0.00000000E+00  0.00000000E+00  0.00000000E+00
  0.00000000E+00  0.00000000E+00  0.00000000E+00
  0.00000000E+00  0.00000000E+00  0.00000000E+00
  0.00000000E+00  0.00000000E+00  0.00000000E+00
  0.00000000E+00  0.00000000E+00  0.00000000E+00
  0.00000000E+00  0.00000000E+00  0.00000000E+00
  0.00000000E+00  0.00000000E+00  0.00000000E+00
  0.00000000E+00  0.00000000E+00  0.00000000E+00
  0.00000000E+00  0.00000000E+00  0.00000000E+00
  0.00000000E+00  0.00000000E+00  0.00000000E+00
  0.00000000E+00  0.00000000E+00  0.00000000E+00
  0.00000000E+00  0.00000000E+00  0.00000000E+00
  0.00000000E+00  0.00000000E+00  0.00000000E+00
  0.00000000E+00  0.00000000E+00  0.00000000E+00
  0.00000000E+00  0.00000000E+00  0.00000000E+00
  0.00000000E+00  0.00000000E+00  0.00000000E+00
  0.00000000E+00  0.00000000E+00  0.00000000E+00
  0.00000000E+00  0.00000000E+00  0.00000000E+00
  0.00000000E+00  0.00000000E+00  0.00000000E+00
  0.00000000E+00  0.00000000E+00  0.00000000E+00
  0.00000000E+00  0.00000000E+00  0.00000000E+00
  0.00000000E+00  0.00000000E+00  0.00000000E+00
  0.00000000E+00  0.00000000E+00  0.00000000E+00
  0.00000000E+00  0.00000000E+00  0.00000000E+00
  0.00000000E+00  0.00000000E+00  0.00000000E+00
  0.00000000E+00  0.00000000E+00  0.00000000E+00
  0.00000000E+00  0.00000000E+00  0.00000000E+00
  0.00000000E+00  0.00000000E+00  0.00000000E+00
  0.00000000E+00  0.00000000E+00  0.00000000E+00
  0.00000000E+00  0.00000000E+00  0.00000000E+00
  0.00000000E+00  0.00000000E+00  0.00000000E+00
  0.00000000E+00  0.00000000E+00  0.00000000E+00
  0.00000000E+00  0.00000000E+00  0.00000000E+00
  0.00000000E+00  0.00000000E+00  0.00000000E+00
  0.00000000E+00  0.00000000E+00  0.00000000E+00
  0.00000000E+00  0.00000000E+00  0.00000000E+00
  0.00000000E+00  0.00000000E+00  0.00000000E+00
  0.00000000E+00  0.00000000E+00  0.00000000E+00
  0.00000000E+00  0.00000000E+00  0.00000000E+00
  0.00000000E+00  0.00000000E+00  0.00000000E+00
  0.00000000E+00  0.00000000E+00  0.00000000E+00
  0.00000000E+00  0.00000000E+00  0.00000000E+00
  0.00000000E+00  0.00000000E+00  0.00000000E+00
  0.00000000E+00  0.00000000E+00  0.00000000E+00
  0.00000000E+00  0.00000000E+00  0.00000000E+00
  0.00000000E+00  0.00000000E+00  0.00000000E+00
  0.00000000E+00  0.00000000E+00  0.00000000E+00
  0.00000000E+00  0.00000000E+00  0.00000000E+00
