mp-560538_Na3AlS3 NEB_v2 image 04       
   1.0000000000000000     
    12.1828203277415312    0.0000000000000000    0.0000000000000007
    -0.0000000000000005    7.5674693205415418    1.1970639402156102
     0.0000000000000000    0.0113082934473333   13.7304524371335805
   Na   Al   S 
    23     8    24
Direct
  0.0035902495120510  0.0103151790122951  0.7573995567894443
  0.7620353243591396  0.9892532277772830  0.0037082628531735
  0.8235126640843973  0.4958216903382535  0.7518279706034505
  0.7529475684925373  0.9840012965318436  0.5154066441637610
  0.9531095927417255  0.1002006183015069  0.3350059820637910
  0.2397838887140580  0.5521356078929571  0.4803009359348565
  0.8226645409118234  0.5077382762113345  0.2510518659280550
  0.2399851683387553  0.0285017180513805  0.4958327231758872
  0.7503676549234939  0.4853116674718265  0.0082600471549696
  0.3865776405776771  0.3660151181408082  0.6568168214386816
  0.2567951942373199  0.5041274317845748  0.9926213944438445
  0.2510292282167654  0.0113687211695748  0.9924711987780057
  0.7463336938207874  0.4826563235947319  0.5130565587304829
  0.1810958922958790  0.4871445180920944  0.2466799386127931
  0.0314356733661967  0.9086594476743883  0.1742094754373227
  0.5448989774366169  0.6002226294594522  0.3316354690164189
  0.3140529906821712  0.9727761259936258  0.7572718606394204
  0.3187990899933695  0.9889935364087918  0.2502296448598429
  0.1660256517323404  0.5181827878570999  0.7526616773775885
  0.4736721783505828  0.4026126452280749  0.1800897666048584
  0.6877487686630843  0.0082640494655237  0.7522958033831841
  0.5225713585704312  0.5782466486848961  0.8056994465711114
  0.6783193709785209  0.0049454291305011  0.2483242050568464
  0.0058713087306543  0.3216553133819247  0.0738419852502687
  0.0093934308118833  0.3431906769349737  0.5748621526908124
  0.5079036189674895  0.1773763656835499  0.4294306041773552
  0.4972444650842505  0.8301641044205397  0.5733831817699411
  0.5061883048606717  0.1649964172672114  0.9247986555736887
  0.4960052393637682  0.8220776577476698  0.0729413081651558
  0.9918066622840200  0.6837571945883667  0.4295629593230643
  0.9964229852708115  0.6621733908437548  0.9299949899234932
  0.3554911716983611  0.3022944972698554  0.8595862176015459
  0.1665744380249379  0.2097315940452518  0.1289808888455326
  0.3611681261273958  0.3308051213781269  0.3680329413844774
  0.1515070514413779  0.7926806455698667  0.8725989569825003
  0.9937709306131879  0.6091986965873062  0.1001629111796518
  0.6445363389387495  0.6843164231553374  0.1411963623630115
  0.8300957452013762  0.7859498678497161  0.3727142986341221
  0.1344384935748906  0.8401632513339834  0.3596076874659744
  0.3380826576610971  0.7164851070345151  0.6309584799935877
  0.4994600843593204  0.8733358216427121  0.9036058245553207
  0.6645223004990157  0.2856939510452250  0.8723148543203010
  0.8595017167838108  0.1787970243723862  0.1442125822349496
  0.1678617280225936  0.2285729273889672  0.6370153330019690
  0.0134527581368644  0.3966873458950886  0.4043532844652589
  0.6481767486967343  0.6961868181963808  0.6376432883154308
  0.5009952480399775  0.1118832052773229  0.0952086020864584
  0.6662251226546019  0.2877836801706053  0.3674569464614024
  0.8564161323350987  0.2070039050083423  0.6336843065079094
  0.0001267497480413  0.6332480519369810  0.5977954609577196
  0.9994862833265614  0.3723560615741661  0.9055697156356146
  0.8415024080910030  0.7837092731926560  0.8679405670190334
  0.5133403505231371  0.1182273266542779  0.5982490061990831
  0.3386081017042741  0.7041033940016419  0.1327128630212897
  0.4912074571728908  0.8912999023442936  0.4033441258955364

             NaN             NaN             NaN
             NaN             NaN             NaN
             NaN             NaN             NaN
             NaN             NaN             NaN
             NaN             NaN             NaN
             NaN             NaN             NaN
             NaN             NaN             NaN
             NaN             NaN             NaN
             NaN             NaN             NaN
             NaN             NaN             NaN
             NaN             NaN             NaN
             NaN             NaN             NaN
             NaN             NaN             NaN
             NaN             NaN             NaN
             NaN             NaN             NaN
             NaN             NaN             NaN
             NaN             NaN             NaN
             NaN             NaN             NaN
             NaN             NaN             NaN
             NaN             NaN             NaN
             NaN             NaN             NaN
             NaN             NaN             NaN
             NaN             NaN             NaN
             NaN             NaN             NaN
             NaN             NaN             NaN
             NaN             NaN             NaN
             NaN             NaN             NaN
             NaN             NaN             NaN
             NaN             NaN             NaN
             NaN             NaN             NaN
             NaN             NaN             NaN
             NaN             NaN             NaN
             NaN             NaN             NaN
             NaN             NaN             NaN
             NaN             NaN             NaN
             NaN             NaN             NaN
             NaN             NaN             NaN
             NaN             NaN             NaN
             NaN             NaN             NaN
             NaN             NaN             NaN
             NaN             NaN             NaN
             NaN             NaN             NaN
             NaN             NaN             NaN
             NaN             NaN             NaN
             NaN             NaN             NaN
             NaN             NaN             NaN
             NaN             NaN             NaN
             NaN             NaN             NaN
             NaN             NaN             NaN
             NaN             NaN             NaN
             NaN             NaN             NaN
             NaN             NaN             NaN
             NaN             NaN             NaN
             NaN             NaN             NaN
             NaN             NaN             NaN
