mp-560538_Na3AlS3 NEB_v2 image 04
  1.0
     12.1828203277415312      0.0000000000000000      0.0000000000000007
     -0.0000000000000005      7.5674693205415418      1.1970639402156102
      0.0000000000000000      0.0113082934473333     13.7304524371335805
  Na  Al  S
  23  8  24
Direct
  0.0035902495120544  0.0103151790122933  0.7573995567894432
  0.7620353243591400  0.9892532277772864  0.0037082628531705
  0.8235126640843963  0.4958216903382557  0.7518279706034525
  0.7529475684925364  0.9840012965318440  0.5154066441637610
  0.9531095927417272  0.1002006183015046  0.3350059820637886
  0.2397838887140550  0.5521356078929549  0.4803009359348541
  0.8226645409118257  0.5077382762113344  0.2510518659280562
  0.2399851683387588  0.0285017180513798  0.4958327231758848
  0.7503676549234953  0.4853116674718264  0.0082600471549722
  0.3865776405776749  0.3660151181408091  0.6568168214386815
  0.2567951942373220  0.5041274317845755  0.9926213944438416
  0.2510292282167680  0.0113687211695738  0.9924711987780046
  0.7463336938207880  0.4826563235947348  0.5130565587304806
  0.1810958922958784  0.4871445180920963  0.2466799386127926
  0.0314356733661985  0.9086594476743892  0.1742094754373231
  0.5448989774366156  0.6002226294594510  0.3316354690164182
  0.3140529906821732  0.9727761259936234  0.7572718606394229
  0.3187990899933722  0.9889935364087939  0.2502296448598463
  0.1660256517323409  0.5181827878570987  0.7526616773775874
  0.4736721783505820  0.4026126452280764  0.1800897666048592
  0.6877487686630817  0.0082640494655269  0.7522958033831871
  0.5225713585704287  0.5782466486848975  0.8056994465711124
  0.6783193709785231  0.0049454291305042  0.2483242050568458
  0.0058713087306557  0.3216553133819216  0.0738419852502690
  0.0093934308118803  0.3431906769349729  0.5748621526908144
  0.5079036189674886  0.1773763656835518  0.4294306041773583
  0.4972444650842524  0.8301641044205430  0.5733831817699419
  0.5061883048606720  0.1649964172672147  0.9247986555736860
  0.4960052393637689  0.8220776577476703  0.0729413081651550
  0.9918066622840183  0.6837571945883646  0.4295629593230674
  0.9964229852708116  0.6621733908437581  0.9299949899234955
  0.3554911716983625  0.3022944972698523  0.8595862176015436
  0.1665744380249347  0.2097315940452518  0.1289808888455304
  0.3611681261273964  0.3308051213781289  0.3680329413844807
  0.1515070514413793  0.7926806455698681  0.8725989569824999
  0.9937709306131878  0.6091986965873074  0.1001629111796528
  0.6445363389387467  0.6843164231553368  0.1411963623630103
  0.8300957452013764  0.7859498678497155  0.3727142986341242
  0.1344384935748909  0.8401632513339804  0.3596076874659759
  0.3380826576611003  0.7164851070345156  0.6309584799935872
  0.4994600843593190  0.8733358216427118  0.9036058245553188
  0.6645223004990162  0.2856939510452276  0.8723148543203035
  0.8595017167838079  0.1787970243723840  0.1442125822349524
  0.1678617280225920  0.2285729273889692  0.6370153330019719
  0.0134527581368664  0.3966873458950913  0.4043532844652586
  0.6481767486967377  0.6961868181963778  0.6376432883154288
  0.5009952480399782  0.1118832052773213  0.0952086020864593
  0.6662251226546018  0.2877836801706027  0.3674569464614037
  0.8564161323351019  0.2070039050083457  0.6336843065079083
  0.0001267497480384  0.6332480519369795  0.5977954609577166
  0.9994862833265608  0.3723560615741635  0.9055697156356181
  0.8415024080910052  0.7837092731926537  0.8679405670190352
  0.5133403505231351  0.1182273266542767  0.5982490061990845
  0.3386081017042764  0.7041033940016431  0.1327128630212900
  0.4912074571728926  0.8912999023442963  0.4033441258955354
