Na3SbS4 tetragonal P-42_1c (No.114) conventional cell (Z=2) from Table I
1.0
  7.160000  0.000000  0.000000
  0.000000  7.160000  0.000000
  0.000000  0.000000  7.290000
Na Sb S
6 2 8
Direct
  0.000000  0.000000  0.000000
  0.500000  0.500000  0.500000
  0.000000  0.500000  0.440000
  0.500000  0.000000  0.560000
  0.500000  0.000000  0.060000
  0.000000  0.500000  0.940000
  0.000000  0.000000  0.500000
  0.500000  0.500000  0.000000
  0.290000  0.330000  0.190000
  0.710000  0.670000  0.190000
  0.670000  0.290000  0.810000
  0.330000  0.710000  0.810000
  0.210000  0.830000  0.310000
  0.790000  0.170000  0.310000
  0.170000  0.210000  0.690000
  0.830000  0.790000  0.690000
