pymatgen v1.1 with grid density = 1366 / atom
0
Monkhorst
2 2 2
