ALGO = All
EDIFF = 1e-06
ENCUT = 520
HFSCREEN = 0.2

ICHARG = 1

ISMEAR = 0
ISPIN = 2
LHFCALC = True
LORBIT = 11
LREAL = Auto
LWAVE = False
MAGMOM = 96*0.6


PREC = Accurate

SIGMA = 0.05
