NMC-321 Li=0.75 (4/6 Li)
1.0
      5.0390000000      0.0000000000      0.0000000000
     -0.0024082751      8.6239996637      0.0000000000
      1.7374836289      0.0032148046      4.7363662553
  Li  Ni  Mn  Co  O
  4  4  1  1  12
Direct
      0.9999700000      0.0000200000      0.5001300000
      0.0000100000      0.5000100000      0.9998700000
      0.9999600000      0.8311000000      0.0002200000
      0.9999100000      0.3317700000      0.4999700000
      0.4998800000      0.8312700000      0.5001400000
      0.5001500000      0.1687700000      0.4998700000
      0.5002000000      0.3332300000      0.9996800000
      0.4999000000      0.6667400000      0.0002700000
      0.4998600000      0.9999700000      0.0001400000
      0.4999900000      0.5000000000      0.4999900000
      0.7286000000      0.8384000000      0.7714000000
      0.2713000000      0.1615100000      0.2288200000
      0.2704700000      0.8388500000      0.2298100000
      0.7293700000      0.1611400000      0.7705600000
      0.7228100000      0.3383000000      0.2645400000
      0.2772500000      0.6617800000      0.7353900000
      0.2774100000      0.3377800000      0.7350000000
      0.7225800000      0.6622400000      0.2650400000
      0.7184700000      0.0000600000      0.2506600000
      0.2815400000      0.9999400000      0.7493500000
      0.7144100000      0.4997400000      0.7492000000
      0.2859300000      0.5001800000      0.2500600000
