Na1 Zn1 S1                              
   1.0000000000000000     
     4.9295253416983646    1.9236232894579488    0.0000000000000000
     3.0401866817142089    6.2954844335294302    0.0000000000000000
     0.0000000000000000    0.0000000000000000    4.8749055206473964
   Na   Zn   S 
     1     1     1
Direct
  0.9254922688585212  0.9415321509630522 -0.0000000000000000
  0.9222542463123685  0.4415931335189100 -0.0000000000000000
  0.4242806649999552  0.9417666012915197  0.0000000000000000

  0.00000000E+00  0.00000000E+00  0.00000000E+00
  0.00000000E+00  0.00000000E+00  0.00000000E+00
  0.00000000E+00  0.00000000E+00  0.00000000E+00
