Na12 Si4 S14                            
   1.0000000000000000     
     6.7992921385319924    0.0035306241515896    1.1991185957669768
    -1.1450930877734515    6.7021757345434274    1.1991188187414166
    -0.0167963838357614   -0.0199199902988139   15.0687941891412009
   Na   Si   S 
    12     4    14
Direct
  0.5801195859660524  0.4198804140341181  0.7499999999999716
  0.4198804140339476  0.5801195859658819  0.2500000000000284
  0.5000000000000000  0.5000000000000000  0.0000000000000000
  0.5000000000000000  0.5000000000000000  0.5000000000000000
  0.2641344324575599  0.9710824438765755  0.9251869957534353
  0.0289175561234671  0.7358655675425538  0.5748130042465434
  0.7358655675424401  0.0289175561234245  0.0748130042465647
  0.9710824438765329  0.2641344324574462  0.4251869957534566
  0.5109140929323459  0.9517552427522062  0.6392492136948889
  0.0482447572475735  0.4890859070676186  0.8607507863051538
  0.4890859070676541  0.0482447572477938  0.3607507863051111
  0.9517552427524265  0.5109140929323814  0.1392492136948462
  0.7660953271750373  0.9241540393913681  0.8596412192149643
  0.0758459606086603  0.2339046728248562  0.6403587807850855
  0.9241540393913397  0.7660953271751438  0.3596412192149145
  0.2339046728249627  0.0758459606086319  0.1403587807850357
  0.0334797394247701  0.9665202605747751  0.7500000000000355
  0.9665202605752299  0.0334797394252249  0.2499999999999645
  0.6945542320672402  0.1948110015436768  0.8930741559926432
  0.8051889984574316  0.3054457679333566  0.6069258440071010
  0.3054457679327598  0.8051889984563232  0.1069258440073639
  0.1948110015425684  0.6945542320666434  0.3930741559928990
  0.8658761535837556  0.7446115520578402  0.9679246618793087
  0.2553884479414776  0.1341238464155552  0.5320753381208903
  0.1341238464162444  0.2553884479421598  0.0320753381206913
  0.7446115520585224  0.8658761535844448  0.4679246618791097
  0.5197827474579300  0.7605923708861423  0.8194492817348020
  0.2394017178262260  0.4802113412541402  0.6785607897445658
  0.4802113412535647  0.2394017178265599  0.1785607897445871
  0.7605982821737740  0.5197886587458598  0.3214392102554342

  0.00000000E+00  0.00000000E+00  0.00000000E+00
  0.00000000E+00  0.00000000E+00  0.00000000E+00
  0.00000000E+00  0.00000000E+00  0.00000000E+00
  0.00000000E+00  0.00000000E+00  0.00000000E+00
  0.00000000E+00  0.00000000E+00  0.00000000E+00
  0.00000000E+00  0.00000000E+00  0.00000000E+00
  0.00000000E+00  0.00000000E+00  0.00000000E+00
  0.00000000E+00  0.00000000E+00  0.00000000E+00
  0.00000000E+00  0.00000000E+00  0.00000000E+00
  0.00000000E+00  0.00000000E+00  0.00000000E+00
  0.00000000E+00  0.00000000E+00  0.00000000E+00
  0.00000000E+00  0.00000000E+00  0.00000000E+00
  0.00000000E+00  0.00000000E+00  0.00000000E+00
  0.00000000E+00  0.00000000E+00  0.00000000E+00
  0.00000000E+00  0.00000000E+00  0.00000000E+00
  0.00000000E+00  0.00000000E+00  0.00000000E+00
  0.00000000E+00  0.00000000E+00  0.00000000E+00
  0.00000000E+00  0.00000000E+00  0.00000000E+00
  0.00000000E+00  0.00000000E+00  0.00000000E+00
  0.00000000E+00  0.00000000E+00  0.00000000E+00
  0.00000000E+00  0.00000000E+00  0.00000000E+00
  0.00000000E+00  0.00000000E+00  0.00000000E+00
  0.00000000E+00  0.00000000E+00  0.00000000E+00
  0.00000000E+00  0.00000000E+00  0.00000000E+00
  0.00000000E+00  0.00000000E+00  0.00000000E+00
  0.00000000E+00  0.00000000E+00  0.00000000E+00
  0.00000000E+00  0.00000000E+00  0.00000000E+00
  0.00000000E+00  0.00000000E+00  0.00000000E+00
  0.00000000E+00  0.00000000E+00  0.00000000E+00
  0.00000000E+00  0.00000000E+00  0.00000000E+00
