user_Na5AlS4_Na5AlS4 NEB_v2 image 06    
   1.0000000000000000     
    12.1026382039385112    0.0000000000000000    0.0000000000000007
    -0.0000000000000004    7.0938170788834114    0.0000000000000004
     0.0000000000000000    0.0000000000000000   21.6510149562332330
   Na   Al   S 
    39     8    32
Direct
  0.3501822555188241  0.8975971002454841  0.4994225326449495
  0.6513350377474652  0.4074609675871628  0.0015642292999019
  0.1519690939817195  0.0926316231392761  0.9981132763661549
  0.1528761747941161  0.4069303985819488  0.5016166846851675
  0.3486137970660508  0.5924737802211837  0.9986294069673747
  0.6511313978789275  0.1021659537216948  0.5002473754482182
  0.8433606865113532  0.5896493083252423  0.4976383389863912
  0.8481736057573315  0.9074548431663629  0.0020084917147329
  0.2931789397684383  0.5456296032645227  0.3658374038835177
  0.7122587381813545  0.0524284956936043  0.1392277323710545
  0.2113990752261756  0.4479335327615956  0.8616348655150148
  0.2136257589188517  0.0475597887045964  0.3659513728828969
  0.2879720813838986  0.9472277311259134  0.8611570009865090
  0.7074999063327851  0.4558578919390328  0.6352000418721886
  0.7868809377784700  0.9529506732272353  0.6341230081335993
  0.7886366607143742  0.5525205923679835  0.1383183021447962
  0.4929402023912957  0.4916010977818033  0.5098024849599625
  0.4470626774693187  0.0635272313755095  0.0655662144807252
  0.9463898797307166  0.4369991067522676  0.9346234945520706
  0.9473061192912482  0.0571849260795290  0.4347397758639033
  0.5533853487923963  0.9365977967925616  0.9345862510096907
  0.0526438904201143  0.9411424643880935  0.5651176857132683
  0.0533777046141637  0.5630200921176680  0.0653416666776394
  0.5835591992415488  0.3818838015112362  0.2552958231670246
  0.4165996365921742  0.8811498392593009  0.2488205766518448
  0.9140096566324516  0.6179652590318128  0.7523253219544301
  0.9162322213209677  0.8857121785985669  0.2539876952539544
  0.5836110085630537  0.1203460609370666  0.7511389274082987
  0.4173294355373258  0.6159855327971897  0.7447365113922970
  0.0831698054400078  0.1150870846157304  0.7462871893656526
  0.0864734947830073  0.3826716425217214  0.2477186039763239
  0.8342574545097747  0.1054556685545620  0.8296755268160965
  0.1659349823196266  0.6119430487006525  0.6677630853409582
  0.6590182759359422  0.8666772027646843  0.3390392954501422
  0.6640354539289319  0.6061682817667631  0.8296485813057899
  0.8342801232631345  0.3870189985488111  0.3321055430512558
  0.1654570143106326  0.8945222943161610  0.1703578399701229
  0.3362589586049438  0.3944769832925346  0.1704699465594359
  0.3392452312192162  0.1285186179511228  0.6621396184973989
  0.0399327617102045  0.8324856882571012  0.8739642364756364
  0.9560311820942005  0.3375510948061944  0.6255560466864480
  0.4576750395121039  0.1628190157235423  0.3758910293166053
  0.4583066475619333  0.3323970338217492  0.8731210275646362
  0.0437467630439912  0.6613614825198653  0.3745370401272083
  0.9601877709831754  0.1677917940254190  0.1260265280120407
  0.5416266719694107  0.6676718534139354  0.1270877128087022
  0.5424161554306650  0.8396890702072781  0.6242590429074895
  0.3690623099409933  0.2078703055624160  0.9568190559536305
  0.6386915302163558  0.7276153009892639  0.5419689768886968
  0.1302385478413299  0.7851621727795290  0.4587449745697612
  0.1307615464799738  0.7081290274285834  0.9570553345309278
  0.3597419288122978  0.2723465197882007  0.4580312999239098
  0.6310618124276104  0.7924180043789946  0.0434201137229238
  0.8693189788266693  0.2920961004347333  0.0429445940461264
  0.8701188179745145  0.2134035942324459  0.5411425177423510
  0.4442109992020917  0.8447413443282485  0.3787640724847989
  0.5530257987896618  0.3494965615583538  0.1242155149571360
  0.0514305408867415  0.1505987193485865  0.8761088920692046
  0.0538932988951117  0.3438823442144283  0.3770225520642043
  0.4471083124597044  0.6506565210705801  0.8758622708165333
  0.5538328463691045  0.1581523016620707  0.6212360943753268
  0.9456619066106882  0.6549784859637029  0.6227779199794341
  0.9485782850003162  0.8496238881604015  0.1239913419200462
  0.1356455919798663  0.2473331797475851  0.6253902960447562
  0.8591668531119794  0.7443488822582438  0.8765735914243606
  0.3609512926782870  0.7559568651087147  0.1245226425246528
  0.3628984087132494  0.7501013712970988  0.6223059680131300
  0.1409746090277224  0.2556955176156919  0.1233672005607929
  0.8640740365922568  0.7510255874016707  0.3748450827330316
  0.6377593694358765  0.2467272006831607  0.3775498583521042
  0.6390085818974285  0.2443150449446421  0.8755745174742344
  0.6313062509809697  0.7574048225629468  0.2152147287143436
  0.3687278863895145  0.2539778448972569  0.2871423362728933
  0.8641377614075765  0.2464213459591704  0.7127145618444999
  0.8715784576450787  0.2595954269514280  0.2140456275859961
  0.6315868813729111  0.7493661214852452  0.7129948695413333
  0.3686205816568631  0.2425499247067222  0.7850583924650962
  0.1286140422261823  0.7410308396391372  0.7858651727261901
  0.1353384198626273  0.7540510889102094  0.2874867148979448

             NaN             NaN             NaN
             NaN             NaN             NaN
             NaN             NaN             NaN
             NaN             NaN             NaN
             NaN             NaN             NaN
             NaN             NaN             NaN
             NaN             NaN             NaN
             NaN             NaN             NaN
             NaN             NaN             NaN
             NaN             NaN             NaN
             NaN             NaN             NaN
             NaN             NaN             NaN
             NaN             NaN             NaN
             NaN             NaN             NaN
             NaN             NaN             NaN
             NaN             NaN             NaN
             NaN             NaN             NaN
             NaN             NaN             NaN
             NaN             NaN             NaN
             NaN             NaN             NaN
             NaN             NaN             NaN
             NaN             NaN             NaN
             NaN             NaN             NaN
             NaN             NaN             NaN
             NaN             NaN             NaN
             NaN             NaN             NaN
             NaN             NaN             NaN
             NaN             NaN             NaN
             NaN             NaN             NaN
             NaN             NaN             NaN
             NaN             NaN             NaN
             NaN             NaN             NaN
             NaN             NaN             NaN
             NaN             NaN             NaN
             NaN             NaN             NaN
             NaN             NaN             NaN
             NaN             NaN             NaN
             NaN             NaN             NaN
             NaN             NaN             NaN
             NaN             NaN             NaN
             NaN             NaN             NaN
             NaN             NaN             NaN
             NaN             NaN             NaN
             NaN             NaN             NaN
             NaN             NaN             NaN
             NaN             NaN             NaN
             NaN             NaN             NaN
             NaN             NaN             NaN
             NaN             NaN             NaN
             NaN             NaN             NaN
             NaN             NaN             NaN
             NaN             NaN             NaN
             NaN             NaN             NaN
             NaN             NaN             NaN
             NaN             NaN             NaN
             NaN             NaN             NaN
             NaN             NaN             NaN
             NaN             NaN             NaN
             NaN             NaN             NaN
             NaN             NaN             NaN
             NaN             NaN             NaN
             NaN             NaN             NaN
             NaN             NaN             NaN
             NaN             NaN             NaN
             NaN             NaN             NaN
             NaN             NaN             NaN
             NaN             NaN             NaN
             NaN             NaN             NaN
             NaN             NaN             NaN
             NaN             NaN             NaN
             NaN             NaN             NaN
             NaN             NaN             NaN
             NaN             NaN             NaN
             NaN             NaN             NaN
             NaN             NaN             NaN
             NaN             NaN             NaN
             NaN             NaN             NaN
             NaN             NaN             NaN
             NaN             NaN             NaN
