user_Na5AlS4_Na5AlS4 NEB_v2 image 06
  1.0
     12.1026382039385112      0.0000000000000000      0.0000000000000007
     -0.0000000000000004      7.0938170788834114      0.0000000000000004
      0.0000000000000000      0.0000000000000000     21.6510149562332330
  Na  Al  S
  39  8  32
Direct
  0.3501822555188260  0.8975971002454837  0.4994225326449460
  0.6513350377474638  0.4074609675871639  0.0015642292998996
  0.1519690939817218  0.0926316231392790  0.9981132763661579
  0.1528761747941141  0.4069303985819477  0.5016166846851701
  0.3486137970660500  0.5924737802211821  0.9986294069673753
  0.6511313978789299  0.1021659537216977  0.5002473754482197
  0.8433606865113566  0.5896493083252440  0.4976383389863926
  0.8481736057573347  0.9074548431663660  0.0020084917147333
  0.2931789397684362  0.5456296032645254  0.3658374038835151
  0.7122587381813573  0.0524284956936018  0.1392277323710560
  0.2113990752261733  0.4479335327615965  0.8616348655150124
  0.2136257589188496  0.0475597887045980  0.3659513728828958
  0.2879720813838987  0.9472277311259109  0.8611570009865074
  0.7074999063327835  0.4558578919390338  0.6352000418721899
  0.7868809377784686  0.9529506732272361  0.6341230081336025
  0.7886366607143713  0.5525205923679803  0.1383183021447991
  0.4929402023912967  0.4916010977818001  0.5098024849599597
  0.4470626774693174  0.0635272313755128  0.0655662144807261
  0.9463898797307192  0.4369991067522702  0.9346234945520679
  0.9473061192912497  0.0571849260795318  0.4347397758639053
  0.5533853487923971  0.9365977967925614  0.9345862510096914
  0.0526438904201154  0.9411424643880935  0.5651176857132678
  0.0533777046141612  0.5630200921176665  0.0653416666776401
  0.5835591992415476  0.3818838015112352  0.2552958231670223
  0.4165996365921753  0.8811498392593042  0.2488205766518449
  0.9140096566324482  0.6179652590318134  0.7523253219544306
  0.9162322213209695  0.8857121785985679  0.2539876952539516
  0.5836110085630508  0.1203460609370673  0.7511389274083003
  0.4173294355373233  0.6159855327971900  0.7447365113922987
  0.0831698054400051  0.1150870846157278  0.7462871893656554
  0.0864734947830045  0.3826716425217189  0.2477186039763253
  0.8342574545097730  0.1054556685545596  0.8296755268160936
  0.1659349823196264  0.6119430487006529  0.6677630853409569
  0.6590182759359421  0.8666772027646873  0.3390392954501446
  0.6640354539289316  0.6061682817667612  0.8296485813057907
  0.8342801232631353  0.3870189985488080  0.3321055430512528
  0.1654570143106302  0.8945222943161601  0.1703578399701213
  0.3362589586049443  0.3944769832925360  0.1704699465594394
  0.3392452312192181  0.1285186179511256  0.6621396184974007
  0.0399327617102029  0.8324856882570992  0.8739642364756394
  0.9560311820941982  0.3375510948061922  0.6255560466864499
  0.4576750395121013  0.1628190157235422  0.3758910293166085
  0.4583066475619339  0.3323970338217488  0.8731210275646371
  0.0437467630439913  0.6613614825198648  0.3745370401272115
  0.9601877709831776  0.1677917940254222  0.1260265280120419
  0.5416266719694096  0.6676718534139383  0.1270877128087045
  0.5424161554306672  0.8396890702072775  0.6242590429074877
  0.3690623099409928  0.2078703055624154  0.9568190559536323
  0.6386915302163565  0.7276153009892617  0.5419689768886961
  0.1302385478413281  0.7851621727795304  0.4587449745697605
  0.1307615464799711  0.7081290274285854  0.9570553345309312
  0.3597419288122944  0.2723465197882027  0.4580312999239073
  0.6310618124276125  0.7924180043789973  0.0434201137229211
  0.8693189788266710  0.2920961004347351  0.0429445940461250
  0.8701188179745170  0.2134035942324438  0.5411425177423493
  0.4442109992020933  0.8447413443282485  0.3787640724848000
  0.5530257987896620  0.3494965615583560  0.1242155149571373
  0.0514305408867440  0.1505987193485879  0.8761088920692055
  0.0538932988951108  0.3438823442144316  0.3770225520642036
  0.4471083124597078  0.6506565210705828  0.8758622708165301
  0.5538328463691036  0.1581523016620733  0.6212360943753256
  0.9456619066106896  0.6549784859637019  0.6227779199794324
  0.9485782850003189  0.8496238881603997  0.1239913419200480
  0.1356455919798638  0.2473331797475873  0.6253902960447540
  0.8591668531119779  0.7443488822582456  0.8765735914243631
  0.3609512926782896  0.7559568651087167  0.1245226425246535
  0.3628984087132527  0.7501013712970969  0.6223059680131297
  0.1409746090277227  0.2556955176156913  0.1233672005607937
  0.8640740365922546  0.7510255874016708  0.3748450827330334
  0.6377593694358791  0.2467272006831620  0.3775498583521035
  0.6390085818974298  0.2443150449446438  0.8755745174742339
  0.6313062509809729  0.7574048225629471  0.2152147287143426
  0.3687278863895151  0.2539778448972552  0.2871423362728953
  0.8641377614075734  0.2464213459591696  0.7127145618445018
  0.8715784576450768  0.2595954269514263  0.2140456275859941
  0.6315868813729109  0.7493661214852461  0.7129948695413308
  0.3686205816568619  0.2425499247067228  0.7850583924650933
  0.1286140422261849  0.7410308396391380  0.7858651727261935
  0.1353384198626293  0.7540510889102111  0.2874867148979413
