mp-560538_Na3AlS3 NEB_v2 image 08       
   1.0000000000000000     
    12.1828203277415312    0.0000000000000000    0.0000000000000007
    -0.0000000000000005    7.5674693205415418    1.1970639402156102
     0.0000000000000000    0.0113082934473333   13.7304524371335805
   Na   Al   S 
    23     8    24
Direct
  0.0052201779050378  0.9742012019328854  0.7361162730363375
  0.7655386571688823  0.9895263064131115  0.0019027446894455
  0.8246256300096704  0.4885676783396065  0.7511530251523411
  0.7510630752935654  0.9828223528362443  0.5136272604962144
  0.9514790083363209  0.1030493964495918  0.3369788642583984
  0.2407653533753873  0.5516149876778798  0.4791079026333449
  0.8234007376253700  0.5090681670482198  0.2498064114610656
  0.2440037848449848  0.0289804003863381  0.4942562184378048
  0.7505650178673733  0.4841405856681575  0.0073803170133857
  0.3883640386211127  0.3648579075967078  0.6559839202418729
  0.2573176895710958  0.5034681362820947  0.9915338804242708
  0.2480269449732759  0.0107626754007555  0.9903391594616551
  0.7476167986790685  0.4819311077350079  0.5116501301304055
  0.1818913716351460  0.4877108556569425  0.2454354784377841
  0.0296835357854661  0.9098464637407631  0.1765368080895158
  0.5453353046314220  0.5983403386743973  0.3304094236593755
  0.3156841386566356  0.9715486371905939  0.7565614014326840
  0.3191281954682381  0.9886563992605986  0.2486489863853336
  0.1672725871465062  0.5096799696842282  0.7530832918862984
  0.4731061537406092  0.4026498019463816  0.1781760906184999
  0.6889866135764535  0.0072854687686501  0.7513086004896010
  0.5239105243682900  0.5767537709160777  0.8050685939166371
  0.6787859548171369  0.0042472092008623  0.2467988483563843
  0.0062560167386749  0.3232975671557199  0.0739388538459522
  0.0105792297839002  0.3429162328749840  0.5743800244318180
  0.5090399079130208  0.1763946219897008  0.4280250147505669
  0.4981509868256850  0.8282663016765639  0.5724820216780131
  0.5069455089559369  0.1631795949626280  0.9240595588513614
  0.4963979143447688  0.8216364348937617  0.0717984198848711
  0.9929503079411219  0.6857334769093200  0.4299597700150599
  0.9973584064718679  0.6616626340884935  0.9293971576137849
  0.3563492277060547  0.3008045487517350  0.8588706302821834
  0.1668408671737893  0.2097887898371269  0.1283115969986071
  0.3625218368764322  0.3303065754722709  0.3664100080200470
  0.1522504157344784  0.7891974033090037  0.8696056387251971
  0.9951904529663693  0.6117457459657132  0.0995769331601863
  0.6448032305745883  0.6831928723095615  0.1399746182599557
  0.8313201974590569  0.7863216930896755  0.3718456980928124
  0.1352222854758267  0.8432233782798164  0.3604446826881613
  0.3390642268081194  0.7146879688600691  0.6302070499757306
  0.5001183591868283  0.8719513142736801  0.9024986140667650
  0.6653716471144975  0.2837326908802567  0.8716451935629124
  0.8597732666427405  0.1810003085352250  0.1444099204424774
  0.1689746422317384  0.2259618626547777  0.6351610242799666
  0.0153653590472160  0.3995200888369936  0.4039189493269006
  0.6491639508238194  0.6944035260258943  0.6367603039489467
  0.5019969524363432  0.1111279115453385  0.0943704517897714
  0.6675530186102847  0.2867461399093898  0.3664591174186000
  0.8574833204688517  0.2038334104128765  0.6308262864688530
  0.0009348433656129  0.6328087716044237  0.5985010076125903
  0.9997726228854376  0.3717401263761246  0.9060684498332208
  0.8422140948320731  0.7802601185749296  0.8659033663398219
  0.5140718266355009  0.1166937811015529  0.5969650819010610
  0.3385583218413046  0.7045480713462098  0.1312017045206062
  0.4921021208553213  0.8900617339497430  0.4023148718862402

             NaN             NaN             NaN
             NaN             NaN             NaN
             NaN             NaN             NaN
             NaN             NaN             NaN
             NaN             NaN             NaN
             NaN             NaN             NaN
             NaN             NaN             NaN
             NaN             NaN             NaN
             NaN             NaN             NaN
             NaN             NaN             NaN
             NaN             NaN             NaN
             NaN             NaN             NaN
             NaN             NaN             NaN
             NaN             NaN             NaN
             NaN             NaN             NaN
             NaN             NaN             NaN
             NaN             NaN             NaN
             NaN             NaN             NaN
             NaN             NaN             NaN
             NaN             NaN             NaN
             NaN             NaN             NaN
             NaN             NaN             NaN
             NaN             NaN             NaN
             NaN             NaN             NaN
             NaN             NaN             NaN
             NaN             NaN             NaN
             NaN             NaN             NaN
             NaN             NaN             NaN
             NaN             NaN             NaN
             NaN             NaN             NaN
             NaN             NaN             NaN
             NaN             NaN             NaN
             NaN             NaN             NaN
             NaN             NaN             NaN
             NaN             NaN             NaN
             NaN             NaN             NaN
             NaN             NaN             NaN
             NaN             NaN             NaN
             NaN             NaN             NaN
             NaN             NaN             NaN
             NaN             NaN             NaN
             NaN             NaN             NaN
             NaN             NaN             NaN
             NaN             NaN             NaN
             NaN             NaN             NaN
             NaN             NaN             NaN
             NaN             NaN             NaN
             NaN             NaN             NaN
             NaN             NaN             NaN
             NaN             NaN             NaN
             NaN             NaN             NaN
             NaN             NaN             NaN
             NaN             NaN             NaN
             NaN             NaN             NaN
             NaN             NaN             NaN
