mp-560538_Na3AlS3 NEB_v2 image 08
  1.0
     12.1828203277415312      0.0000000000000000      0.0000000000000007
     -0.0000000000000005      7.5674693205415418      1.1970639402156102
      0.0000000000000000      0.0113082934473333     13.7304524371335805
  Na  Al  S
  23  8  24
Direct
  0.0052201779050348  0.9742012019328848  0.7361162730363359
  0.7655386571688821  0.9895263064131149  0.0019027446894449
  0.8246256300096718  0.4885676783396098  0.7511530251523388
  0.7510630752935680  0.9828223528362425  0.5136272604962110
  0.9514790083363208  0.1030493964495913  0.3369788642583989
  0.2407653533753877  0.5516149876778805  0.4791079026333461
  0.8234007376253725  0.5090681670482213  0.2498064114610633
  0.2440037848449867  0.0289804003863352  0.4942562184378037
  0.7505650178673753  0.4841405856681575  0.0073803170133869
  0.3883640386211158  0.3648579075967053  0.6559839202418720
  0.2573176895710950  0.5034681362820979  0.9915338804242679
  0.2480269449732727  0.0107626754007547  0.9903391594616554
  0.7476167986790714  0.4819311077350088  0.5116501301304042
  0.1818913716351467  0.4877108556569421  0.2454354784377816
  0.0296835357854652  0.9098464637407643  0.1765368080895136
  0.5453353046314214  0.5983403386743993  0.3304094236593787
  0.3156841386566386  0.9715486371905911  0.7565614014326828
  0.3191281954682371  0.9886563992605952  0.2486489863853308
  0.1672725871465083  0.5096799696842285  0.7530832918862997
  0.4731061537406120  0.4026498019463806  0.1781760906184975
  0.6889866135764520  0.0072854687686494  0.7513086004896027
  0.5239105243682927  0.5767537709160758  0.8050685939166397
  0.6787859548171403  0.0042472092008655  0.2467988483563870
  0.0062560167386772  0.3232975671557209  0.0739388538459557
  0.0105792297839020  0.3429162328749815  0.5743800244318186
  0.5090399079130206  0.1763946219897039  0.4280250147505689
  0.4981509868256870  0.8282663016765662  0.5724820216780127
  0.5069455089559396  0.1631795949626292  0.9240595588513582
  0.4963979143447718  0.8216364348937597  0.0717984198848698
  0.9929503079411212  0.6857334769093195  0.4299597700150617
  0.9973584064718692  0.6616626340884956  0.9293971576137838
  0.3563492277060549  0.3008045487517323  0.8588706302821864
  0.1668408671737872  0.2097887898371267  0.1283115969986073
  0.3625218368764302  0.3303065754722675  0.3664100080200464
  0.1522504157344775  0.7891974033090052  0.8696056387251961
  0.9951904529663690  0.6117457459657127  0.0995769331601855
  0.6448032305745899  0.6831928723095642  0.1399746182599555
  0.8313201974590539  0.7863216930896750  0.3718456980928093
  0.1352222854758240  0.8432233782798200  0.3604446826881640
  0.3390642268081179  0.7146879688600701  0.6302070499757318
  0.5001183591868316  0.8719513142736787  0.9024986140667619
  0.6653716471144967  0.2837326908802577  0.8716451935629098
  0.8597732666427408  0.1810003085352280  0.1444099204424793
  0.1689746422317366  0.2259618626547807  0.6351610242799653
  0.0153653590472152  0.3995200888369920  0.4039189493269014
  0.6491639508238189  0.6944035260258914  0.6367603039489479
  0.5019969524363430  0.1111279115453418  0.0943704517897738
  0.6675530186102845  0.2867461399093867  0.3664591174186004
  0.8574833204688537  0.2038334104128736  0.6308262864688546
  0.0009348433656120  0.6328087716044224  0.5985010076125892
  0.9997726228854379  0.3717401263761229  0.9060684498332201
  0.8422140948320748  0.7802601185749332  0.8659033663398229
  0.5140718266355013  0.1166937811015554  0.5969650819010637
  0.3385583218413035  0.7045480713462111  0.1312017045206037
  0.4921021208553238  0.8900617339497435  0.4023148718862408
