Na1 P1 S1                               
   1.0000000000000000     
     6.9815330839600165    1.0491290446627597    0.0000000000000000
     1.9202854599511716    3.6866488706427250    0.0000000000000000
     0.0000000000000000    0.0000000000000000    3.3701883422391501
   Na   P    S 
     1     1     1
Direct
  0.7701505876147693  0.0777729378800512 -0.0000000000000000
  0.4230608311284526  0.9249175049515997  0.0000000000000000
  0.0788157614276229  0.2693367373391939 -0.0000000000000000

  0.00000000E+00  0.00000000E+00  0.00000000E+00
  0.00000000E+00  0.00000000E+00  0.00000000E+00
  0.00000000E+00  0.00000000E+00  0.00000000E+00
