Na1 P1 S1
1.0
   6.9452342929328115    1.0128562528833194    0.0000000000000000
   1.8971903323009662    3.6464074684854944    0.0000000000000000
   0.0000000000000000    0.0000000000000000    3.2878840526240554
Na P S
1 1 1
direct
  -0.2293350865149788    0.0773625771103146    0.0000000000000000 Na
   0.4237366656948169   -0.0758872987472208    0.0000000000000000 P
   0.0776256009910067    0.2705519018077512    0.0000000000000000 S
