SYSTEM = endpoint_relax

! Electronic structure
ENCUT  = 400
EDIFF  = 1E-05
PREC   = Normal
ALGO   = Fast
LREAL  = Auto
ISYM   = 0

! Ionic relaxation (cell fixed, ions free)
IBRION = 2
ISIF   = 2
NSW    = 300
EDIFFG = -0.02

! Output
LWAVE  = .TRUE.
LCHARG = .FALSE.
