Na4 S4                                  
   1.0000000000000000     
     4.4431860084162969   -0.0000000000000000   -0.0000000000000000
    -2.2215930042081484    3.8479138378356783    0.0000000000000000
     0.0000000000000000   -0.0000000000000000   10.2051549844210943
   Na   S 
     4     4
Direct
 -0.0000000000000000 -0.0000000000000000 -0.0000000000000000
 -0.0000000000000000 -0.0000000000000000  0.5000000000000000
  0.3333330000000032  0.6666669999999968  0.2500000000000000
  0.6666669999999968  0.3333330000000032  0.7500000000000000
  0.3333330000000032  0.6666669999999968  0.6445308638786160
  0.6666669999999968  0.3333330000000032  0.1445308638786159
  0.6666669999999968  0.3333330000000032  0.3554691361213841
  0.3333330000000032  0.6666669999999968  0.8554691361213840

  0.00000000E+00  0.00000000E+00  0.00000000E+00
  0.00000000E+00  0.00000000E+00  0.00000000E+00
  0.00000000E+00  0.00000000E+00  0.00000000E+00
  0.00000000E+00  0.00000000E+00  0.00000000E+00
  0.00000000E+00  0.00000000E+00  0.00000000E+00
  0.00000000E+00  0.00000000E+00  0.00000000E+00
  0.00000000E+00  0.00000000E+00  0.00000000E+00
  0.00000000E+00  0.00000000E+00  0.00000000E+00
