Na Al S                                 
   1.0000000000000000     
    12.1828203277415312    0.0000000000000000    0.0000000000000007
    -0.0000000000000005    7.5674693205415418    1.1970639402156102
     0.0000000000000000    0.0113082934473333   13.7304524371335805
   Na   Al   S 
    23     8    24
Direct
  0.9730807146396430  0.0055066106187525  0.8065467712998142
  0.8594526401811606  0.3799207693029345  0.9913876395732402
  0.7867908009786007  0.5446411693835813  0.7521183775120406
  0.7297998358616837  0.9195892891086856  0.5439446059839526
  0.9089046361274811  0.0968344895827755  0.4110995561137969
  0.2437691703954528  0.5695810753677009  0.4992968099477864
  0.8030073990397639  0.5141450881975587  0.2791237769912698
  0.2686183526058343  0.0657016881954746  0.5004998110567485
  0.6430101934709995  0.5833821277899318  0.9512756584892088
  0.4159509268864809  0.3876949259205986  0.6410857464610515
  0.2692465034020870  0.5123245169904962  0.9469691696471614
  0.2594949951902805  0.0091213636721221  0.9462060311072520
  0.7576219913455660  0.4147742511300336  0.5443906805161944
  0.2012182184548976  0.4491288617001885  0.2883093111086410
  0.1856574737115650  0.9504844921334552  0.2432426793568752
  0.5842306642121571  0.6040843602690273  0.3843864558230763
  0.3418908671519674  0.0081187473551267  0.7451853331442280
  0.0675794815778161  0.8926857785881950  0.6484109633537898
  0.1761956022267057  0.4931969972135306  0.7457125940092482
  0.4975085521522757  0.4064666815133364  0.2145538764298109
  0.6899453699418245  0.0248593505790922  0.7579496461324453
  0.5214332620271023  0.5874468299351250  0.7976440197620178
  0.6872222012125420  0.9391750672363841  0.3359331962837828
  0.0030245158065583  0.3423047782198054  0.9502899062404069
  0.0171876004786569  0.2907662769133310  0.6193220450475891
  0.5333543573640043  0.1410428668595003  0.5001231440302760
  0.4824860946680829  0.8112468379703088  0.5930578251483070
  0.5408935198326148  0.1733460014513213  0.8656144532015304
  0.5932746050770277  0.9238913049253696  0.0172248496972429
  0.9561233420685369  0.6661971074380801  0.4952455354319483
  0.9686938527561608  0.7669940942833691  0.8082323398164775
  0.3848613813153108  0.3134211876269859  0.7786595222666506
  0.2869063764876643  0.0991952659126270  0.1183025381114859
  0.4197745668235129  0.3583177136000160  0.4900533755577641
  0.1548039833959578  0.8656840473789202  0.7677647014492237
  0.8702354351529067  0.2873376566117400  0.0897825319720837
  0.6504105552839334  0.7087204274857157  0.1524177676507037
  0.7716576462093840  0.7505814431232949  0.4223655516196345
  0.1027724048814562  0.8945549420923129  0.5102768497366554
  0.3149543370978591  0.7415928888504055  0.6405004983436200
  0.5544562525942140  0.9231614160588393  0.8268333727116470
  0.6512721145060993  0.2873745961909719  0.8303640339422671
  0.6574008123733961  0.9884570841885107  0.1538293752930429
  0.1933299144945337  0.2269417293553886  0.6481290252696468
  0.0205965819758021  0.3647971739112421  0.4908845990054971
  0.5956497347548151  0.6108842140307047  0.6212844993089064
  0.5056950473491355  0.1850735856398984  0.9993289781638950
  0.6596033408327528  0.2468458514569107  0.4399829447699020
  0.8835880660613995  0.0562706867693095  0.6208871440701884
  0.9769736729144682  0.7085276111188961  0.6106722082949716
  0.0043203630540702  0.3712994850108373  0.7224813842034052
  0.7559413939343855  0.8605224241202194  0.8135181988866051
  0.5398871486832348  0.0749574831529429  0.6297699763099374
  0.4345539218981855  0.7269582068243707  0.1123730823246092
  0.4869618935024747  0.8952496496693740  0.4689280690256510

             NaN             NaN             NaN
             NaN             NaN             NaN
             NaN             NaN             NaN
             NaN             NaN             NaN
             NaN             NaN             NaN
             NaN             NaN             NaN
             NaN             NaN             NaN
             NaN             NaN             NaN
             NaN             NaN             NaN
             NaN             NaN             NaN
             NaN             NaN             NaN
             NaN             NaN             NaN
             NaN             NaN             NaN
             NaN             NaN             NaN
             NaN             NaN             NaN
             NaN             NaN             NaN
             NaN             NaN             NaN
             NaN             NaN             NaN
             NaN             NaN             NaN
             NaN             NaN             NaN
             NaN             NaN             NaN
             NaN             NaN             NaN
             NaN             NaN             NaN
             NaN             NaN             NaN
             NaN             NaN             NaN
             NaN             NaN             NaN
             NaN             NaN             NaN
             NaN             NaN             NaN
             NaN             NaN             NaN
             NaN             NaN             NaN
             NaN             NaN             NaN
             NaN             NaN             NaN
             NaN             NaN             NaN
             NaN             NaN             NaN
             NaN             NaN             NaN
             NaN             NaN             NaN
             NaN             NaN             NaN
             NaN             NaN             NaN
             NaN             NaN             NaN
             NaN             NaN             NaN
             NaN             NaN             NaN
             NaN             NaN             NaN
             NaN             NaN             NaN
             NaN             NaN             NaN
             NaN             NaN             NaN
             NaN             NaN             NaN
             NaN             NaN             NaN
             NaN             NaN             NaN
             NaN             NaN             NaN
             NaN             NaN             NaN
             NaN             NaN             NaN
             NaN             NaN             NaN
             NaN             NaN             NaN
             NaN             NaN             NaN
             NaN             NaN             NaN
