Na Al S 
 1.0000000000000000
    12.1828203277415312    0.0000000000000000    0.0000000000000007
    -0.0000000000000005    7.5674693205415418    1.1970639402156102
     0.0000000000000000    0.0113082934473333   13.7304524371335805
 Na  Al  S  
  23   8  24
Direct
  0.9187845669159030  0.0688698056786594  0.8861886654406628
  0.7523473625307932  0.2628961992548124 -0.0226609867750012
  0.8505490447782516  0.4898615837430621  0.7455509490714838
  0.7595947616111893  0.9970656712517891  0.4983477775205694
  0.9302943185186184  0.1008330746162738  0.3408789230680370
  0.2075701827278471  0.5283190080558369  0.4824497572374887
  0.8323488967136201  0.5079047997902311  0.2304818790189542
  0.2351257532093821 -0.0005840962050349  0.4929277031366168
  0.4647802936318379  0.1881734298190909  0.7360140736484529
  0.1937066126172800  0.4702869400945045  1.0093500842269767
  0.2263455131551889 -0.0236092747779242  0.9991744000389526
  0.8027717821331518  0.4412689915555497  0.5004717294660624
  0.0836137328084588  0.4934158145064938  0.2494687262768528
  0.0250269993498688  0.9233927026971759  0.1776133405270153
  0.6053190497029084  0.6263239965418301  0.2984019402082411
  0.3214252337304013  0.5556673706987153  0.7844582087572509
  0.0311420526517512  0.9240609046114638  0.6818067433885350
  0.3142955168687172  0.4985086623667650  0.2252098905624843
  0.0840444817104936  0.4877530784914865  0.7402415971125013
  0.5344875750139157  0.3922281822583712  0.1514094203949796
  0.6993614396825872 -0.0268049005810826  0.7489797589204540
  0.6492094342563467  0.5700003204918984  0.8686404748902934
  0.6816853542470931 -0.0038130495112443  0.2329262472973363
 -0.0001162145262707  0.3279039574234381  0.0650598362571370
 -0.0000167100794531  0.3147359099828452  0.5692199278470822
  0.5233414958126569  0.1062034627104300  0.4158216319214480
  0.4763620448515038  1.0503804185553209  0.5560212346489415
  0.5219388660839942  0.1068179297478483  0.9462360204796638
  0.5063529199839479  0.8473727140376844  0.0599251621166050
  0.9966374219724630  0.6767388223240952  0.4224915845148737
  0.5028264129629454  0.6632232324921321  1.0970339781200593
  0.3538326055075694  0.1840025172642643  0.8939225281269870
  0.1559961791532732  0.1979735513714418  0.1175063392267538
  0.3615828078352841  0.2171697033426827  0.3914946394433839
  0.1265192397499962  0.8156712563859876  0.8655207175847157
 -0.0139051174292741  0.6308441801441046  0.0787016425260872
  0.6527169465372755  0.7020112638996303  0.1227541381877824
  0.8375830156733418  0.7833579134125113  0.3601269610918351
  0.1286124043395052  0.8352775013072294  0.3586478559031490
  0.2741771635804199  0.8636385086776430  0.5979531311396608
  0.5130386128513666  1.0639658062877040  0.8540902366517873
  0.6777998462877328  0.2341868760826673  0.8713780150811204
  0.8734767873618164  0.1763196603230764  0.1495996926610366
  0.1580491368406994  0.2032538482860363  0.6294561074832926
 -0.0061760586121541  0.3743217803397319  0.4100251402764643
  0.7422494718046019  0.7723777393835457  0.6547857829154020
  0.4974305438903290  0.1000814147154424  0.0889741949834616
  0.6821570943014041  0.2559401695875421  0.3558902896526543
  0.8677666102243040  0.1626536019605637  0.6269500032771445
  0.5122022290953184  0.5787134883245751  0.5680107349431097
 -0.0212203532870513  0.3625907312903682  0.9120793008896482
  0.8589434163787297  0.8095220143480513  0.8698954336018043
  0.5155482929904579  0.0103052493336558  0.5929261452184589
  0.3301330062220222  0.8163620551638090  0.0698483563615402
  0.4829496905751389  0.9858282246000379  0.3558248352143989
Cartesian
  0.0000000000000000  0.0000000000000000  0.0000000000000000
  0.0000000000000000  0.0000000000000000  0.0000000000000000
  0.0000000000000000  0.0000000000000000  0.0000000000000000
  0.0000000000000000  0.0000000000000000  0.0000000000000000
  0.0000000000000000  0.0000000000000000  0.0000000000000000
  0.0000000000000000  0.0000000000000000  0.0000000000000000
  0.0000000000000000  0.0000000000000000  0.0000000000000000
  0.0000000000000000  0.0000000000000000  0.0000000000000000
  0.0000000000000000  0.0000000000000000  0.0000000000000000
  0.0000000000000000  0.0000000000000000  0.0000000000000000
  0.0000000000000000  0.0000000000000000  0.0000000000000000
  0.0000000000000000  0.0000000000000000  0.0000000000000000
  0.0000000000000000  0.0000000000000000  0.0000000000000000
  0.0000000000000000  0.0000000000000000  0.0000000000000000
  0.0000000000000000  0.0000000000000000  0.0000000000000000
  0.0000000000000000  0.0000000000000000  0.0000000000000000
  0.0000000000000000  0.0000000000000000  0.0000000000000000
  0.0000000000000000  0.0000000000000000  0.0000000000000000
  0.0000000000000000  0.0000000000000000  0.0000000000000000
  0.0000000000000000  0.0000000000000000  0.0000000000000000
  0.0000000000000000  0.0000000000000000  0.0000000000000000
  0.0000000000000000  0.0000000000000000  0.0000000000000000
  0.0000000000000000  0.0000000000000000  0.0000000000000000
  0.0000000000000000  0.0000000000000000  0.0000000000000000
  0.0000000000000000  0.0000000000000000  0.0000000000000000
  0.0000000000000000  0.0000000000000000  0.0000000000000000
  0.0000000000000000  0.0000000000000000  0.0000000000000000
  0.0000000000000000  0.0000000000000000  0.0000000000000000
  0.0000000000000000  0.0000000000000000  0.0000000000000000
  0.0000000000000000  0.0000000000000000  0.0000000000000000
  0.0000000000000000  0.0000000000000000  0.0000000000000000
  0.0000000000000000  0.0000000000000000  0.0000000000000000
  0.0000000000000000  0.0000000000000000  0.0000000000000000
  0.0000000000000000  0.0000000000000000  0.0000000000000000
  0.0000000000000000  0.0000000000000000  0.0000000000000000
  0.0000000000000000  0.0000000000000000  0.0000000000000000
  0.0000000000000000  0.0000000000000000  0.0000000000000000
  0.0000000000000000  0.0000000000000000  0.0000000000000000
  0.0000000000000000  0.0000000000000000  0.0000000000000000
  0.0000000000000000  0.0000000000000000  0.0000000000000000
  0.0000000000000000  0.0000000000000000  0.0000000000000000
  0.0000000000000000  0.0000000000000000  0.0000000000000000
  0.0000000000000000  0.0000000000000000  0.0000000000000000
  0.0000000000000000  0.0000000000000000  0.0000000000000000
  0.0000000000000000  0.0000000000000000  0.0000000000000000
  0.0000000000000000  0.0000000000000000  0.0000000000000000
  0.0000000000000000  0.0000000000000000  0.0000000000000000
  0.0000000000000000  0.0000000000000000  0.0000000000000000
  0.0000000000000000  0.0000000000000000  0.0000000000000000
  0.0000000000000000  0.0000000000000000  0.0000000000000000
  0.0000000000000000  0.0000000000000000  0.0000000000000000
  0.0000000000000000  0.0000000000000000  0.0000000000000000
  0.0000000000000000  0.0000000000000000  0.0000000000000000
  0.0000000000000000  0.0000000000000000  0.0000000000000000
  0.0000000000000000  0.0000000000000000  0.0000000000000000
