Na3AlS3 bottleneck NEB image 05
  1.0
     12.1828203277415312      0.0000000000000000      0.0000000000000007
     -0.0000000000000005      7.5674693205415418      1.1970639402156102
      0.0000000000000000      0.0113082934473333     13.7304524371335805
  Na  Al  S
  23  8  24
Direct
  0.9027749797401932  0.0822060748089274  0.8837824339767490
  0.7874036836668425  0.2561121202185666  0.8726582966898706
  0.7792428126969662  0.7366948253357219  0.6360701650536953
  0.8223850783102868  0.0493883686847643  0.4244437577918931
  0.0964393940387147  0.3097961487497415  0.4089124238350919
  0.0390295525746665  0.5234257057286200  0.3630144142443446
  0.0331958352838950  0.2607611594731781  0.3583745545049939
  0.5009727753293243  0.2766432070010703  0.2415111500409319
  0.4565190210690886  0.4112920478483384  0.6823687501508275
  0.2572524837517828  0.5074858517317508  0.9853686650756261
  0.2429606770641360  0.0087969771952156  0.9856268414238222
  0.7559823663538277  0.4608643328114292  0.5108336343885715
  0.1823679831953793  0.4929325332793711  0.2446893089398746
  0.0291868328173706  0.9150186091153704  0.1808067562027641
  0.5749342228208469  0.6069834517279260  0.3404579202623235
  0.3230282393956335  0.9898179941012395  0.7497800673163711
  0.0436502595919132  0.9114192155216850  0.6832818109162808
  0.3176708625902841  0.9913489069397406  0.2440805425918494
  0.1773729888915703  0.4891482188356748  0.7495751217823019
  0.4702373726889374  0.4153572700718259  0.1813563509362092
  0.6818168232799020  0.0095896179766200  0.7485548455506503
  0.5982876001576805  0.5803814078151692  0.8837611848869079
  0.6774986153002349  0.0097277963608327  0.2343840814991222
  0.0064985652397778  0.3309412510285626  0.0713727069656571
  0.0088451835102096  0.3263503771985414  0.5689750239206668
  0.5087066984283010  0.1738364058734779  0.4253405258067807
  0.4912807949390638  0.8261425160539613  0.5687451885487554
  0.5056612307087673  0.1674150033620631  0.9232974094819033
  0.4935354403758940  0.8307659940109167  0.0712188515907809
  0.9909819216830311  0.6734381697874099  0.4250733682956641
  0.9943162234773246  0.6672972533310734  0.9232734462106940
  0.3528228884522304  0.2940934034059564  0.8567428118985577
  0.1668550352886627  0.2143327386040975  0.1242600605549724
  0.3627253437383507  0.3265641431716232  0.3626464974437212
  0.1473810158392291  0.7942073076607268  0.8573308028323303
  0.9989579401827232  0.6211074743420362  0.0928518232383032
  0.6378582019546526  0.6855221297227250  0.1428581883561069
  0.8297190713886010  0.7770592120643318  0.3651856199313122
  0.1372528705849272  0.8247281778783406  0.3616664717335976
  0.3324016808090005  0.7171930416148347  0.6291701609537500
  0.5037108607685352  0.8757548468389607  0.9021972410312749
  0.6597846072542184  0.2959668944866253  0.8632993562385582
  0.8619326373696012  0.1854067700669447  0.1421923145233132
  0.1680116795122688  0.2169153235692160  0.6285312318219447
  0.0121022933438251  0.3880234828652764  0.3990702293339023
  0.6394304049386814  0.6728150328079452  0.6256695575005929
  0.5003148368414635  0.1211364635935794  0.0927868841299373
  0.6699434851910219  0.2767269809222533  0.3649097034812483
  0.8605374930903199  0.1747067526929088  0.6271027397522959
  0.9905570200722411  0.6140352321428522  0.5946030204546708
  0.9973231656886972  0.3757367868000764  0.9022007564245316
  0.8401645760212231  0.7954977942117525  0.8629780118331183
  0.5105765153686930  0.1131893549346776  0.5948954320527475
  0.3330698496225784  0.7138701872320735  0.1234823870184473
  0.4865300077064076  0.8889519911125913  0.3988820003614810
