Na Al S 
 1.0000000000000000
    12.1828203277415312   -0.0000000000000000    0.0000000000000007
    -0.0000000000000005    7.5674693205415418    1.1970639402156102
     0.0000000000000000    0.0113082934473333   13.7304524371335805
 Na  Al  S  
  23   8  24
Direct
  0.9730807146396400  0.0055066106187549  0.8065467712998124
  0.8594526401811575  0.3799207693029342 -0.0086123604267564
  0.7867908009785977  0.5446411693835834  0.7521183775120414
  0.7297998358616825  0.9195892891086881  0.5439446059839537
  0.9089046361274795  0.0968344895827761  0.4110995561137957
  0.2437691703954510  0.5695810753677012  0.4992968099477857
  0.8030073990397651  0.5141450881975556  0.2791237769912687
  0.2686183526058369  0.0657016881954741  0.5004998110567482
  0.6430101934710021  0.5833821277899353 -0.0487243415107935
  0.4159509268864826  0.3876949259206001  0.6410857464610495
  0.2692465034020840  0.5123245169904929  0.9469691696471649
  0.2594949951902836  0.0091213636721237  0.9462060311072551
  0.7576219913455631  0.4147742511300347  0.5443906805161930
  0.2012182184548997  0.4491288617001869  0.2883093111086382
  0.1856574737115678  0.9504844921334578  0.2432426793568740
  0.5842306642121584  0.6040843602690267  0.3843864558230786
  0.3418908671519695  1.0081187473551285  0.7451853331442269
  0.0675794815778147  0.8926857785881955  0.6484109633537866
  0.1761956022267081  0.4931969972135293  0.7457125940092457
  0.4975085521522724  0.4064666815133396  0.2145538764298138
  0.6899453699418222  0.0248593505790894  0.7579496461324418
  0.5214332620271028  0.5874468299351226  0.7976440197620166
  0.6872222012125440 -0.0608249327636169  0.3359331962837818
  0.0030245158065602  0.3423047782198085 -0.0497100937595963
  0.0171876004786540  0.2907662769133310  0.6193220450475917
  0.5333543573640035  0.1410428668594970  0.5001231440302728
  0.4824860946680844  0.8112468379703093  0.5930578251483078
  0.5408935198326128  0.1733460014513231  0.8656144532015334
  0.5932746050770269  0.9238913049253725  0.0172248496972419
  0.9561233420685356  0.6661971074380814  0.4952455354319517
  0.9686938527561644  0.7669940942833678  0.8082323398164762
  0.3848613813153081  0.3134211876269862  0.7786595222666503
  0.2869063764876669  0.0991952659126289  0.1183025381114840
  0.4197745668235101  0.3583177136000180  0.4900533755577675
  0.1548039833959609  0.8656840473789218  0.7677647014492263
 -0.1297645648470939  0.2873376566117375  0.0897825319720804
  0.6504105552839325  0.7087204274857183  0.1524177676507071
  0.7716576462093874  0.7505814431232978  0.4223655516196352
  0.1027724048814552  0.8945549420923093  0.5102768497366558
  0.3149543370978597  0.7415928888504025  0.6405004983436186
  0.5544562525942149  0.9231614160588397  0.8268333727116500
  0.6512721145061009  0.2873745961909733  0.8303640339422648
  0.6574008123733975 -0.0115429158114904  0.1538293752930405
  0.1933299144945327  0.2269417293553858  0.6481290252696454
  0.0205965819758025  0.3647971739112396  0.4908845990054975
  0.5956497347548168  0.6108842140307080  0.6212844993089048
  0.5056950473491371  0.1850735856399007 -0.0006710218361043
  0.6596033408327495  0.2468458514569106  0.4399829447699034
  0.8835880660613997  0.0562706867693103  0.6208871440701861
  0.9769736729144657  0.7085276111188968  0.6106722082949689
  1.0043203630540678  0.3712994850108382  0.7224813842034077
  0.7559413939343871  0.8605224241202193  0.8135181988866054
  0.5398871486832323  0.0749574831529412  0.6297699763099340
  0.4345539218981838  0.7269582068243718  0.1123730823246089
  0.4869618935024762  0.8952496496693714  0.4689280690256509
Cartesian
  0.0000000000000000  0.0000000000000000  0.0000000000000000
  0.0000000000000000  0.0000000000000000  0.0000000000000000
  0.0000000000000000  0.0000000000000000  0.0000000000000000
  0.0000000000000000  0.0000000000000000  0.0000000000000000
  0.0000000000000000  0.0000000000000000  0.0000000000000000
  0.0000000000000000  0.0000000000000000  0.0000000000000000
  0.0000000000000000  0.0000000000000000  0.0000000000000000
  0.0000000000000000  0.0000000000000000  0.0000000000000000
  0.0000000000000000  0.0000000000000000  0.0000000000000000
  0.0000000000000000  0.0000000000000000  0.0000000000000000
  0.0000000000000000  0.0000000000000000  0.0000000000000000
  0.0000000000000000  0.0000000000000000  0.0000000000000000
  0.0000000000000000  0.0000000000000000  0.0000000000000000
  0.0000000000000000  0.0000000000000000  0.0000000000000000
  0.0000000000000000  0.0000000000000000  0.0000000000000000
  0.0000000000000000  0.0000000000000000  0.0000000000000000
  0.0000000000000000  0.0000000000000000  0.0000000000000000
  0.0000000000000000  0.0000000000000000  0.0000000000000000
  0.0000000000000000  0.0000000000000000  0.0000000000000000
  0.0000000000000000  0.0000000000000000  0.0000000000000000
  0.0000000000000000  0.0000000000000000  0.0000000000000000
  0.0000000000000000  0.0000000000000000  0.0000000000000000
  0.0000000000000000  0.0000000000000000  0.0000000000000000
  0.0000000000000000  0.0000000000000000  0.0000000000000000
  0.0000000000000000  0.0000000000000000  0.0000000000000000
  0.0000000000000000  0.0000000000000000  0.0000000000000000
  0.0000000000000000  0.0000000000000000  0.0000000000000000
  0.0000000000000000  0.0000000000000000  0.0000000000000000
  0.0000000000000000  0.0000000000000000  0.0000000000000000
  0.0000000000000000  0.0000000000000000  0.0000000000000000
  0.0000000000000000  0.0000000000000000  0.0000000000000000
  0.0000000000000000  0.0000000000000000  0.0000000000000000
  0.0000000000000000  0.0000000000000000  0.0000000000000000
  0.0000000000000000  0.0000000000000000  0.0000000000000000
  0.0000000000000000  0.0000000000000000  0.0000000000000000
  0.0000000000000000  0.0000000000000000  0.0000000000000000
  0.0000000000000000  0.0000000000000000  0.0000000000000000
  0.0000000000000000  0.0000000000000000  0.0000000000000000
  0.0000000000000000  0.0000000000000000  0.0000000000000000
  0.0000000000000000  0.0000000000000000  0.0000000000000000
  0.0000000000000000  0.0000000000000000  0.0000000000000000
  0.0000000000000000  0.0000000000000000  0.0000000000000000
  0.0000000000000000  0.0000000000000000  0.0000000000000000
  0.0000000000000000  0.0000000000000000  0.0000000000000000
  0.0000000000000000  0.0000000000000000  0.0000000000000000
  0.0000000000000000  0.0000000000000000  0.0000000000000000
  0.0000000000000000  0.0000000000000000  0.0000000000000000
  0.0000000000000000  0.0000000000000000  0.0000000000000000
  0.0000000000000000  0.0000000000000000  0.0000000000000000
  0.0000000000000000  0.0000000000000000  0.0000000000000000
  0.0000000000000000  0.0000000000000000  0.0000000000000000
  0.0000000000000000  0.0000000000000000  0.0000000000000000
  0.0000000000000000  0.0000000000000000  0.0000000000000000
  0.0000000000000000  0.0000000000000000  0.0000000000000000
  0.0000000000000000  0.0000000000000000  0.0000000000000000
