Na4 P4 S12                              
   1.0000000000000000     
     8.0623126118433319    0.0000000000000000    0.0000000000000005
    -0.0000000000000004    6.7891073792301313    0.1112861400662401
     0.0000000000000000    0.1147390313993880    9.1472731836599532
   Na   P    S 
     4     4    12
Direct
  0.5127684351455561  0.7082492767278477  0.7103813540600219
  0.0127684351455560  0.2917507232721525  0.2896186459399780
  0.4872315648544440  0.2917507232721525  0.2896186459399780
  0.9872315648544439  0.7082492767278477  0.7103813540600219
  0.7500000000000000  0.2104552759341623  0.6164888313424561
  0.2500000000000000  0.7895447240658378  0.3835111686575441
  0.7500000000000000  0.3273715518180408  0.9234252578561276
  0.2500000000000000  0.6726284481819589  0.0765747421438722
  0.0559025364766842  0.7625472543102800  0.2250233417075144
  0.5559025364766843  0.2374527456897197  0.7749766582924853
  0.9440974635233157  0.2374527456897197  0.7749766582924853
  0.4440974635233159  0.7625472543102800  0.2250233417075144
  0.7500000000000000  0.6189940973338741  0.9431870164662584
  0.2500000000000000  0.3810059026661260  0.0568129835337418
  0.7500000000000000  0.4411446792182970  0.4754304475253748
  0.2500000000000000  0.5588553207817031  0.5245695524746251
  0.7500000000000000  0.1555568869297606  0.1012200392675009
  0.2500000000000000  0.8444431130702394  0.8987799607324989
  0.7500000000000000  0.9455894655108538  0.5282798729528884
  0.2500000000000000  0.0544105344891462  0.4717201270471114

  0.00000000E+00  0.00000000E+00  0.00000000E+00
  0.00000000E+00  0.00000000E+00  0.00000000E+00
  0.00000000E+00  0.00000000E+00  0.00000000E+00
  0.00000000E+00  0.00000000E+00  0.00000000E+00
  0.00000000E+00  0.00000000E+00  0.00000000E+00
  0.00000000E+00  0.00000000E+00  0.00000000E+00
  0.00000000E+00  0.00000000E+00  0.00000000E+00
  0.00000000E+00  0.00000000E+00  0.00000000E+00
  0.00000000E+00  0.00000000E+00  0.00000000E+00
  0.00000000E+00  0.00000000E+00  0.00000000E+00
  0.00000000E+00  0.00000000E+00  0.00000000E+00
  0.00000000E+00  0.00000000E+00  0.00000000E+00
  0.00000000E+00  0.00000000E+00  0.00000000E+00
  0.00000000E+00  0.00000000E+00  0.00000000E+00
  0.00000000E+00  0.00000000E+00  0.00000000E+00
  0.00000000E+00  0.00000000E+00  0.00000000E+00
  0.00000000E+00  0.00000000E+00  0.00000000E+00
  0.00000000E+00  0.00000000E+00  0.00000000E+00
  0.00000000E+00  0.00000000E+00  0.00000000E+00
  0.00000000E+00  0.00000000E+00  0.00000000E+00
