Na8 S20                                 
   1.0000000000000000     
     5.7838223981289438   -0.0000000000000000    0.0000000000000000
    -0.0000000000000000    7.6770033705140985    0.0000000000000000
     0.0000000000000000    0.0000000000000000   14.5293297845865599
   Na   S 
     8    20
Direct
  0.2099216299792258  0.9464558382368202  0.7500000000000000
  0.7099216299792254  0.5535441617631798  0.2500000000000000
  0.2900783700207743  0.4464558382368202  0.7500000000000000
  0.7900783700207746  0.0535441617631797  0.2500000000000000
  0.0000000000000000  0.0000000000000000  0.5000000000000000
  0.5000000000000000  0.5000000000000000  0.5000000000000000
  0.5000000000000000  0.5000000000000000  0.0000000000000000
  0.0000000000000000  0.0000000000000000  0.0000000000000000
  0.1119835162277921  0.4568736013893781  0.1343219188313109
  0.6119835162277920  0.0431263986106220  0.8656780811686892
  0.3880164837722078  0.9568736013893782  0.3656780811686889
  0.8880164837722080  0.5431263986106218  0.6343219188313108
  0.8880164837722080  0.5431263986106218  0.8656780811686892
  0.3880164837722078  0.9568736013893782  0.1343219188313109
  0.6119835162277920  0.0431263986106220  0.6343219188313108
  0.1119835162277921  0.4568736013893781  0.3656780811686889
  0.2747808170533855  0.3587241674770377  0.2500000000000000
  0.7747808170533856  0.1412758325229624  0.7500000000000000
  0.2252191829466146  0.8587241674770376  0.2500000000000000
  0.7252191829466144  0.6412758325229624  0.7500000000000000
  0.8379172073564922  0.2962566288924080  0.3971366582787189
  0.3379172073564922  0.2037433711075917  0.6028633417212815
  0.6620827926435078  0.7962566288924083  0.1028633417212813
  0.1620827926435077  0.7037433711075917  0.8971366582787185
  0.1620827926435077  0.7037433711075917  0.6028633417212815
  0.6620827926435078  0.7962566288924083  0.3971366582787189
  0.3379172073564922  0.2037433711075917  0.8971366582787185
  0.8379172073564922  0.2962566288924080  0.1028633417212813

  0.00000000E+00  0.00000000E+00  0.00000000E+00
  0.00000000E+00  0.00000000E+00  0.00000000E+00
  0.00000000E+00  0.00000000E+00  0.00000000E+00
  0.00000000E+00  0.00000000E+00  0.00000000E+00
  0.00000000E+00  0.00000000E+00  0.00000000E+00
  0.00000000E+00  0.00000000E+00  0.00000000E+00
  0.00000000E+00  0.00000000E+00  0.00000000E+00
  0.00000000E+00  0.00000000E+00  0.00000000E+00
  0.00000000E+00  0.00000000E+00  0.00000000E+00
  0.00000000E+00  0.00000000E+00  0.00000000E+00
  0.00000000E+00  0.00000000E+00  0.00000000E+00
  0.00000000E+00  0.00000000E+00  0.00000000E+00
  0.00000000E+00  0.00000000E+00  0.00000000E+00
  0.00000000E+00  0.00000000E+00  0.00000000E+00
  0.00000000E+00  0.00000000E+00  0.00000000E+00
  0.00000000E+00  0.00000000E+00  0.00000000E+00
  0.00000000E+00  0.00000000E+00  0.00000000E+00
  0.00000000E+00  0.00000000E+00  0.00000000E+00
  0.00000000E+00  0.00000000E+00  0.00000000E+00
  0.00000000E+00  0.00000000E+00  0.00000000E+00
  0.00000000E+00  0.00000000E+00  0.00000000E+00
  0.00000000E+00  0.00000000E+00  0.00000000E+00
  0.00000000E+00  0.00000000E+00  0.00000000E+00
  0.00000000E+00  0.00000000E+00  0.00000000E+00
  0.00000000E+00  0.00000000E+00  0.00000000E+00
  0.00000000E+00  0.00000000E+00  0.00000000E+00
  0.00000000E+00  0.00000000E+00  0.00000000E+00
  0.00000000E+00  0.00000000E+00  0.00000000E+00
