Na8 S20
1.0
   5.7906616399999997    0.0000000000000000    0.0000000000000000
   0.0000000000000000    7.6473673700000004    0.0000000000000000
   0.0000000000000000    0.0000000000000000   14.5105346199999996
Na S
8 20
direct
   0.2016949900000000    0.9476915299999999    0.7500000000000000 Na
   0.7016949900000000    0.5523084700000001    0.2500000000000000 Na
   0.2983050100000000    0.4476915300000000    0.7500000000000000 Na
   0.7983050100000000    0.0523084700000000    0.2500000000000000 Na
  -0.0000000000000000    0.0000000000000000    0.5000000000000000 Na
   0.5000000000000000    0.5000000000000000    0.5000000000000000 Na
   0.5000000000000000    0.5000000000000000    0.0000000000000000 Na
  -0.0000000000000000    0.0000000000000000    0.0000000000000000 Na
   0.1101127700000000    0.4572731400000000    0.1341158900000000 S
   0.6101127700000000    0.0427268600000000    0.8658841100000000 S
   0.3898872300000000    0.9572731400000000    0.3658841100000000 S
   0.8898872300000000    0.5427268600000000    0.6341158900000000 S
   0.8898872300000000    0.5427268600000000    0.8658841100000000 S
   0.3898872300000000    0.9572731400000000    0.1341158900000000 S
   0.6101127700000000    0.0427268600000000    0.6341158900000000 S
   0.1101127700000000    0.4572731400000000    0.3658841100000000 S
   0.2713596700000000    0.3579027100000000    0.2500000000000000 S
   0.7713596700000001    0.1420972900000000    0.7500000000000000 S
   0.2286403300000000    0.8579027100000000    0.2500000000000000 S
   0.7286403299999999    0.6420972900000000    0.7500000000000000 S
   0.8358092300000000    0.2967324600000000    0.3973276100000000 S
   0.3358092300000000    0.2032675400000000    0.6026723899999999 S
   0.6641907700000000    0.7967324600000000    0.1026723900000000 S
   0.1641907700000000    0.7032675400000000    0.8973276100000001 S
   0.1641907700000000    0.7032675400000000    0.6026723899999999 S
   0.6641907700000000    0.7967324600000000    0.3973276100000000 S
   0.3358092300000000    0.2032675400000000    0.8973276100000001 S
   0.8358092300000000    0.2967324600000000    0.1026723900000000 S
