pymatgen v1.1 with grid density = 553 / atom
0
Gamma
2 2 1
