Na3SbS4 tetragonal P-42_1c (No.114) conv
   1.0000000000000000     
     6.6788351750537878    0.0000000000000000    0.0000000000000000
     0.0000000000000000    6.6788351750537878   -0.0000000000000000
     0.0000000000000000    0.0000000000000000    6.7602295928439409
   Na   Sb   S 
     6     2     8
Direct
  0.0000000000000000  0.0000000000000000  0.0000000000000000
  0.5000000000000000  0.5000000000000000  0.5000000000000000
  0.0000000000000000  0.5000000000000000  0.4767172667881070
  0.5000000000000000  0.0000000000000000  0.5232827332118930
  0.5000000000000000  0.0000000000000000  0.0232827332118930
  0.0000000000000000  0.5000000000000000  0.9767172667881070
  0.0000000000000000  0.0000000000000000  0.5000000000000000
  0.5000000000000000  0.5000000000000000  0.0000000000000000
  0.2891115707526168  0.3059302534574400  0.1998225270904541
  0.7108884292473832  0.6940697465425600  0.1998225270904541
  0.6940697465425600  0.2891115707526168  0.8001774729095459
  0.3059302534574400  0.7108884292473832  0.8001774729095459
  0.2108884292473832  0.8059302534574400  0.3001774729095459
  0.7891115707526168  0.1940697465425600  0.3001774729095459
  0.1940697465425600  0.2108884292473832  0.6998225270904541
  0.8059302534574400  0.7891115707526168  0.6998225270904541

  0.00000000E+00  0.00000000E+00  0.00000000E+00
  0.00000000E+00  0.00000000E+00  0.00000000E+00
  0.00000000E+00  0.00000000E+00  0.00000000E+00
  0.00000000E+00  0.00000000E+00  0.00000000E+00
  0.00000000E+00  0.00000000E+00  0.00000000E+00
  0.00000000E+00  0.00000000E+00  0.00000000E+00
  0.00000000E+00  0.00000000E+00  0.00000000E+00
  0.00000000E+00  0.00000000E+00  0.00000000E+00
  0.00000000E+00  0.00000000E+00  0.00000000E+00
  0.00000000E+00  0.00000000E+00  0.00000000E+00
  0.00000000E+00  0.00000000E+00  0.00000000E+00
  0.00000000E+00  0.00000000E+00  0.00000000E+00
  0.00000000E+00  0.00000000E+00  0.00000000E+00
  0.00000000E+00  0.00000000E+00  0.00000000E+00
  0.00000000E+00  0.00000000E+00  0.00000000E+00
  0.00000000E+00  0.00000000E+00  0.00000000E+00
