Na3SbS4                                 
   1.0000000000000000     
     6.7569211749156937    0.0000000000000000    0.0000000000000000
    -0.0000000000000000    6.7569211749156937    0.0000000000000000
    -0.0000000000000000   -0.0000000000000000    6.7569211749156937
   Na   Sb   S 
     6     2     8
Direct
  0.0000000000000000  0.0000000000000000  0.5000000000000000
  0.0000000000000000  0.5000000000000000  0.0000000000000000
  0.5000000000000000  0.0000000000000000  0.0000000000000000
  0.5000000000000000  0.5000000000000000  0.0000000000000000
  0.5000000000000000  0.0000000000000000  0.5000000000000000
  0.0000000000000000  0.5000000000000000  0.5000000000000000
  0.0000000000000000  0.0000000000000000  0.0000000000000000
  0.5000000000000000  0.5000000000000000  0.5000000000000000
  0.2994788492566087  0.2994788492566087  0.2994788492566087
  0.2005211507433913  0.2005211507433913  0.7994788492566087
  0.7994788492566087  0.2005211507433913  0.2005211507433913
  0.2005211507433913  0.7994788492566087  0.2005211507433913
  0.7994788492566087  0.7994788492566087  0.7994788492566087
  0.7005211607433921  0.7005211607433921  0.2994788392566079
  0.2994788392566079  0.7005211607433921  0.7005211607433921
  0.7005211607433921  0.2994788392566079  0.7005211607433921

  0.00000000E+00  0.00000000E+00  0.00000000E+00
  0.00000000E+00  0.00000000E+00  0.00000000E+00
  0.00000000E+00  0.00000000E+00  0.00000000E+00
  0.00000000E+00  0.00000000E+00  0.00000000E+00
  0.00000000E+00  0.00000000E+00  0.00000000E+00
  0.00000000E+00  0.00000000E+00  0.00000000E+00
  0.00000000E+00  0.00000000E+00  0.00000000E+00
  0.00000000E+00  0.00000000E+00  0.00000000E+00
  0.00000000E+00  0.00000000E+00  0.00000000E+00
  0.00000000E+00  0.00000000E+00  0.00000000E+00
  0.00000000E+00  0.00000000E+00  0.00000000E+00
  0.00000000E+00  0.00000000E+00  0.00000000E+00
  0.00000000E+00  0.00000000E+00  0.00000000E+00
  0.00000000E+00  0.00000000E+00  0.00000000E+00
  0.00000000E+00  0.00000000E+00  0.00000000E+00
  0.00000000E+00  0.00000000E+00  0.00000000E+00
