Na3SbS4                                 
   1.0000000000000000     
     6.4939208896235208   -0.0000000000000000    0.0000000000000000
    -0.0000000000000000    6.4939208896235208    0.0000000000000000
    -0.0000000000000000   -0.0000000000000000    6.4939208896235208
   Na   Sb   S 
     6     2     8
Direct
  0.0000000000000000  0.0000000000000000  0.5000000000000000
  0.0000000000000000  0.5000000000000000  0.0000000000000000
  0.5000000000000000  0.0000000000000000  0.0000000000000000
  0.5000000000000000  0.5000000000000000  0.0000000000000000
  0.5000000000000000  0.0000000000000000  0.5000000000000000
  0.0000000000000000  0.5000000000000000  0.5000000000000000
  0.0000000000000000  0.0000000000000000  0.0000000000000000
  0.5000000000000000  0.5000000000000000  0.5000000000000000
  0.2930086939119028  0.2930086939119028  0.2930086939119028
  0.2069913060880972  0.2069913060880972  0.7930086939119028
  0.7930086939119028  0.2069913060880972  0.2069913060880972
  0.2069913060880972  0.7930086939119028  0.2069913060880972
  0.7930086939119028  0.7930086939119028  0.7930086939119028
  0.7069913160880981  0.7069913160880981  0.2930086839119020
  0.2930086839119020  0.7069913160880981  0.7069913160880981
  0.7069913160880981  0.2930086839119020  0.7069913160880981

  0.00000000E+00  0.00000000E+00  0.00000000E+00
  0.00000000E+00  0.00000000E+00  0.00000000E+00
  0.00000000E+00  0.00000000E+00  0.00000000E+00
  0.00000000E+00  0.00000000E+00  0.00000000E+00
  0.00000000E+00  0.00000000E+00  0.00000000E+00
  0.00000000E+00  0.00000000E+00  0.00000000E+00
  0.00000000E+00  0.00000000E+00  0.00000000E+00
  0.00000000E+00  0.00000000E+00  0.00000000E+00
  0.00000000E+00  0.00000000E+00  0.00000000E+00
  0.00000000E+00  0.00000000E+00  0.00000000E+00
  0.00000000E+00  0.00000000E+00  0.00000000E+00
  0.00000000E+00  0.00000000E+00  0.00000000E+00
  0.00000000E+00  0.00000000E+00  0.00000000E+00
  0.00000000E+00  0.00000000E+00  0.00000000E+00
  0.00000000E+00  0.00000000E+00  0.00000000E+00
  0.00000000E+00  0.00000000E+00  0.00000000E+00
