user_Na5AlS4_Na5AlS4 NEB_v2 image 02    
   1.0000000000000000     
    12.1026382039385112    0.0000000000000000    0.0000000000000007
    -0.0000000000000004    7.0938170788834114    0.0000000000000004
     0.0000000000000000    0.0000000000000000   21.6510149562332330
   Na   Al   S 
    39     8    32
Direct
  0.3490111685075377  0.8970684667904791  0.4997077108365744
  0.6512933380801300  0.4070143744357395  0.0013379645859573
  0.1516647458867197  0.0924645891010414  0.9979647104558396
  0.1589345555738646  0.4116360392917997  0.5022820404701775
  0.3484028212180021  0.5919593817376736  0.9983174275759410
  0.6505338163341676  0.1019864461926474  0.5004003857073442
  0.8498554342362681  0.5954778560688112  0.4986741579241212
  0.8477573209927982  0.9071616470209349  0.0020227303265443
  0.2915359993163236  0.5425206328694046  0.3639551886742680
  0.7115910080571695  0.0522353777375315  0.1388168045426355
  0.2109890333332700  0.4478985157359787  0.8615700368718961
  0.2130785739171586  0.0472377098165637  0.3659412565560416
  0.2874882521116149  0.9474658916940513  0.8610968470290743
  0.7058758649541943  0.4534899028376316  0.6332070938768055
  0.7865331058690259  0.9537592293705472  0.6340180828748245
  0.7886941945683432  0.5521652361835265  0.1383041551934525
  0.5209219121417945  0.5233554787563364  0.4713540393254689
  0.4464750606659109  0.0628596692368788  0.0653182004475070
  0.9462821746358827  0.4369408628532483  0.9346730150760436
  0.9478562951319702  0.0601962297617149  0.4348706704449867
  0.5528044431761785  0.9362456984729874  0.9343232706579201
  0.0531638242216701  0.9444424926066191  0.5652898892317424
  0.0535159321065635  0.5631122630835961  0.0653581615782102
  0.5827399961820348  0.3839237562756992  0.2551893943906194
  0.4157067844044064  0.8760360256203228  0.2490101462505834
  0.9128290370015790  0.6190795648384437  0.7521361935065229
  0.9175876045630389  0.8854013648123455  0.2537163883172653
  0.5830033499487541  0.1165506295403134  0.7511965233546789
  0.4162234226597050  0.6190419235441240  0.7447805356622723
  0.0851873183604894  0.1153465322721132  0.7460899993923320
  0.0855486096481926  0.3829362907325091  0.2475160322175540
  0.8343488351869581  0.1058597235334773  0.8294523684095267
  0.1663896506407241  0.6149656973698612  0.6678999475042460
  0.6616889054058106  0.8762279614582837  0.3362081021261716
  0.6637605086054279  0.6049916507111632  0.8296721718190128
  0.8344975688122602  0.3891568781404331  0.3323315795863948
  0.1657113035796911  0.8949795172792818  0.1701998860342755
  0.3360956116539171  0.3926741972430108  0.1703487774456747
  0.3424605757145756  0.1396473626197476  0.6593987850811089
  0.0394983127966029  0.8324087803017690  0.8739727902190779
  0.9563690651960997  0.3402526797854648  0.6254715007093949
  0.4578291975130639  0.1567538270700908  0.3756117981641296
  0.4579108631134687  0.3322547907260258  0.8726378401777737
  0.0437034003604211  0.6634092507167964  0.3743554724937610
  0.9598433670840976  0.1674279346845751  0.1260646935200711
  0.5413217491099473  0.6670190990847260  0.1265526667387533
  0.5427529328176419  0.8344612973428482  0.6240169268810547
  0.3686509741538941  0.2076726871263403  0.9563937303605243
  0.6421536110123967  0.7277459085595908  0.5419691438450300
  0.1293892780362143  0.7873080193156454  0.4588923531361999
  0.1304393817393716  0.7080752992451522  0.9570528046489812
  0.3630205011035414  0.2719482018886836  0.4579574803386137
  0.6306846169243912  0.7918867755486048  0.0429403762367784
  0.8689254135867088  0.2919227063897551  0.0430222220322634
  0.8699265996167114  0.2164080328313105  0.5412293631330911
  0.4479546468582924  0.8378449726732669  0.3788763547787539
  0.5524554212580313  0.3487872658406914  0.1239104823579638
  0.0511702493979840  0.1506357584140616  0.8759816667873750
  0.0547563134734261  0.3458810385550208  0.3771405283006573
  0.4465769495494669  0.6505187159500494  0.8756180796376611
  0.5577686848517516  0.1520276740705810  0.6211888518706559
  0.9467149694279016  0.6577320059301712  0.6230131918892710
  0.9485894973879354  0.8492483547848693  0.1238944807873352
  0.1360117297964933  0.2507468671651196  0.6253342299975699
  0.8587412831847203  0.7446214141598873  0.8766113616503830
  0.3605282422182157  0.7546237272227074  0.1242152428701857
  0.3621881679109862  0.7558205124859327  0.6226460779774428
  0.1406060364039945  0.2555412449152001  0.1234053929196719
  0.8641057471838494  0.7537885865492768  0.3746498058556966
  0.6368275099804350  0.2518915191902806  0.3778570796707754
  0.6385140965403764  0.2437529067160682  0.8752687629383473
  0.6310444088412055  0.7569824381890200  0.2145552026234370
  0.3690409450018706  0.2483093988357226  0.2869552747726658
  0.8646338146841330  0.2470649724442495  0.7124327680715439
  0.8710656281222384  0.2587848669958959  0.2141989482556497
  0.6319296978098450  0.7445796107390379  0.7128650192850969
  0.3683742913859405  0.2423898241626858  0.7844900663087202
  0.1279963186661988  0.7406585564961006  0.7859961611896011
  0.1357839270279442  0.7543990591315577  0.2872707118867268

             NaN             NaN             NaN
             NaN             NaN             NaN
             NaN             NaN             NaN
             NaN             NaN             NaN
             NaN             NaN             NaN
             NaN             NaN             NaN
             NaN             NaN             NaN
             NaN             NaN             NaN
             NaN             NaN             NaN
             NaN             NaN             NaN
             NaN             NaN             NaN
             NaN             NaN             NaN
             NaN             NaN             NaN
             NaN             NaN             NaN
             NaN             NaN             NaN
             NaN             NaN             NaN
             NaN             NaN             NaN
             NaN             NaN             NaN
             NaN             NaN             NaN
             NaN             NaN             NaN
             NaN             NaN             NaN
             NaN             NaN             NaN
             NaN             NaN             NaN
             NaN             NaN             NaN
             NaN             NaN             NaN
             NaN             NaN             NaN
             NaN             NaN             NaN
             NaN             NaN             NaN
             NaN             NaN             NaN
             NaN             NaN             NaN
             NaN             NaN             NaN
             NaN             NaN             NaN
             NaN             NaN             NaN
             NaN             NaN             NaN
             NaN             NaN             NaN
             NaN             NaN             NaN
             NaN             NaN             NaN
             NaN             NaN             NaN
             NaN             NaN             NaN
             NaN             NaN             NaN
             NaN             NaN             NaN
             NaN             NaN             NaN
             NaN             NaN             NaN
             NaN             NaN             NaN
             NaN             NaN             NaN
             NaN             NaN             NaN
             NaN             NaN             NaN
             NaN             NaN             NaN
             NaN             NaN             NaN
             NaN             NaN             NaN
             NaN             NaN             NaN
             NaN             NaN             NaN
             NaN             NaN             NaN
             NaN             NaN             NaN
             NaN             NaN             NaN
             NaN             NaN             NaN
             NaN             NaN             NaN
             NaN             NaN             NaN
             NaN             NaN             NaN
             NaN             NaN             NaN
             NaN             NaN             NaN
             NaN             NaN             NaN
             NaN             NaN             NaN
             NaN             NaN             NaN
             NaN             NaN             NaN
             NaN             NaN             NaN
             NaN             NaN             NaN
             NaN             NaN             NaN
             NaN             NaN             NaN
             NaN             NaN             NaN
             NaN             NaN             NaN
             NaN             NaN             NaN
             NaN             NaN             NaN
             NaN             NaN             NaN
             NaN             NaN             NaN
             NaN             NaN             NaN
             NaN             NaN             NaN
             NaN             NaN             NaN
             NaN             NaN             NaN
