user_Na5AlS4_Na5AlS4 NEB_v2 image 02
  1.0
     12.1026382039385112      0.0000000000000000      0.0000000000000007
     -0.0000000000000004      7.0938170788834114      0.0000000000000004
      0.0000000000000000      0.0000000000000000     21.6510149562332330
  Na  Al  S
  39  8  32
Direct
  0.3490111685075375  0.8970684667904772  0.4997077108365735
  0.6512933380801272  0.4070143744357412  0.0013379645859596
  0.1516647458867201  0.0924645891010385  0.9979647104558366
  0.1589345555738670  0.4116360392917982  0.5022820404701740
  0.3484028212180046  0.5919593817376760  0.9983174275759378
  0.6505338163341675  0.1019864461926472  0.5004003857073440
  0.8498554342362699  0.5954778560688129  0.4986741579241203
  0.8477573209927980  0.9071616470209317  0.0020227303265457
  0.2915359993163215  0.5425206328694024  0.3639551886742650
  0.7115910080571682  0.0522353777375317  0.1388168045426354
  0.2109890333332689  0.4478985157359796  0.8615700368718986
  0.2130785739171610  0.0472377098165655  0.3659412565560418
  0.2874882521116175  0.9474658916940484  0.8610968470290710
  0.7058758649541965  0.4534899028376282  0.6332070938768036
  0.7865331058690294  0.9537592293705489  0.6340180828748251
  0.7886941945683440  0.5521652361835256  0.1383041551934541
  0.5209219121417978  0.5233554787563368  0.4713540393254717
  0.4464750606659079  0.0628596692368802  0.0653182004475066
  0.9462821746358860  0.4369408628532468  0.9346730150760438
  0.9478562951319695  0.0601962297617173  0.4348706704449871
  0.5528044431761778  0.9362456984729860  0.9343232706579224
  0.0531638242216735  0.9444424926066212  0.5652898892317414
  0.0535159321065621  0.5631122630835942  0.0653581615782118
  0.5827399961820344  0.3839237562756970  0.2551893943906222
  0.4157067844044029  0.8760360256203229  0.2490101462505858
  0.9128290370015768  0.6190795648384437  0.7521361935065253
  0.9175876045630419  0.8854013648123441  0.2537163883172621
  0.5830033499487576  0.1165506295403141  0.7511965233546795
  0.4162234226597055  0.6190419235441214  0.7447805356622704
  0.0851873183604894  0.1153465322721138  0.7460899993923344
  0.0855486096481915  0.3829362907325091  0.2475160322175541
  0.8343488351869585  0.1058597235334778  0.8294523684095266
  0.1663896506407219  0.6149656973698607  0.6678999475042425
  0.6616889054058117  0.8762279614582804  0.3362081021261726
  0.6637605086054283  0.6049916507111615  0.8296721718190154
  0.8344975688122604  0.3891568781404321  0.3323315795863954
  0.1657113035796917  0.8949795172792835  0.1701998860342740
  0.3360956116539196  0.3926741972430143  0.1703487774456753
  0.3424605757145782  0.1396473626197442  0.6593987850811088
  0.0394983127966016  0.8324087803017725  0.8739727902190770
  0.9563690651960967  0.3402526797854653  0.6254715007093914
  0.4578291975130649  0.1567538270700933  0.3756117981641299
  0.4579108631134706  0.3322547907260235  0.8726378401777725
  0.0437034003604214  0.6634092507167958  0.3743554724937618
  0.9598433670840983  0.1674279346845753  0.1260646935200712
  0.5413217491099466  0.6670190990847251  0.1265526667387566
  0.5427529328176416  0.8344612973428496  0.6240169268810581
  0.3686509741538974  0.2076726871263390  0.9563937303605236
  0.6421536110123977  0.7277459085595879  0.5419691438450266
  0.1293892780362110  0.7873080193156426  0.4588923531361992
  0.1304393817393718  0.7080752992451508  0.9570528046489807
  0.3630205011035380  0.2719482018886856  0.4579574803386142
  0.6306846169243904  0.7918867755486025  0.0429403762367782
  0.8689254135867095  0.2919227063897518  0.0430222220322628
  0.8699265996167133  0.2164080328313115  0.5412293631330893
  0.4479546468582897  0.8378449726732692  0.3788763547787534
  0.5524554212580295  0.3487872658406880  0.1239104823579639
  0.0511702493979811  0.1506357584140608  0.8759816667873761
  0.0547563134734247  0.3458810385550241  0.3771405283006564
  0.4465769495494676  0.6505187159500495  0.8756180796376589
  0.5577686848517523  0.1520276740705813  0.6211888518706568
  0.9467149694279026  0.6577320059301719  0.6230131918892701
  0.9485894973879365  0.8492483547848697  0.1238944807873359
  0.1360117297964906  0.2507468671651220  0.6253342299975702
  0.8587412831847189  0.7446214141598891  0.8766113616503813
  0.3605282422182159  0.7546237272227045  0.1242152428701861
  0.3621881679109877  0.7558205124859356  0.6226460779774418
  0.1406060364039925  0.2555412449152029  0.1234053929196700
  0.8641057471838519  0.7537885865492775  0.3746498058556997
  0.6368275099804361  0.2518915191902785  0.3778570796707775
  0.6385140965403796  0.2437529067160689  0.8752687629383439
  0.6310444088412079  0.7569824381890214  0.2145552026234352
  0.3690409450018711  0.2483093988357246  0.2869552747726640
  0.8646338146841329  0.2470649724442483  0.7124327680715468
  0.8710656281222386  0.2587848669958975  0.2141989482556516
  0.6319296978098482  0.7445796107390393  0.7128650192850950
  0.3683742913859429  0.2423898241626886  0.7844900663087219
  0.1279963186661961  0.7406585564961000  0.7859961611895994
  0.1357839270279442  0.7543990591315559  0.2872707118867235
