EDIFF = 1e-05
EDIFFG = -0.05
ENCUT = 400.0
IBRION = 2
ISIF = 3
ISMEAR = 0
LCHARG = False
LREAL = Auto
LWAVE = False
NSW = 100
SIGMA = 0.05
