SYSTEM = endpoint_relax_hop2

ENCUT  = 500
EDIFF  = 1E-05
PREC   = Normal
ALGO   = Fast
LREAL  = Auto
ISYM   = 0

IBRION = 2
ISIF   = 2
NSW    = 300
EDIFFG = -0.02

LWAVE  = .TRUE.
LCHARG = .FALSE.
