user_Na5AlS4_Na5AlS4 NEB_v2 image 01    
   1.0000000000000000     
    12.1026382039385112    0.0000000000000000    0.0000000000000007
    -0.0000000000000004    7.0938170788834114    0.0000000000000004
     0.0000000000000000    0.0000000000000000   21.6510149562332330
   Na   Al   S 
    39     8    32
Direct
  0.3487183967547125  0.8969363084267243  0.4997790053844824
  0.6512829131632927  0.4069027261478837  0.0012813984074711
  0.1515886588629698  0.0924228305914809  0.9979275689782554
  0.1604491507688053  0.4128124494692642  0.5024483794164283
  0.3483500772559935  0.5918307821168014  0.9982394327280772
  0.6503844209479794  0.1019415693103838  0.5004386382721222
  0.8514791211675004  0.5969349930047017  0.4989331126585554
  0.8476532498016667  0.9070883479845762  0.0020262899794972
  0.2911252642032949  0.5417433902706250  0.3634846348719520
  0.7114240755261179  0.0521870982485169  0.1387140725855289
  0.2108865228600436  0.4478897614795727  0.8615538297111200
  0.2129417776667424  0.0471571900945591  0.3659387274743295
  0.2873672947935475  0.9475254318360840  0.8610818085397085
  0.7054698546095466  0.4528979055622742  0.6327088568779544
  0.7864461478916667  0.9539613684063752  0.6339918515601326
  0.7887085780318372  0.5520763971374123  0.1383006184556166
  0.5279173395794245  0.5312940739999732  0.4617419279168473
  0.4463281564650572  0.0626927787022211  0.0652561969392025
  0.9462552483621778  0.4369263018784935  0.9346853952070404
  0.9479938390921490  0.0609490556822649  0.4349033940902558
  0.5526592167721205  0.9361576738930921  0.9342575255699828
  0.0532938076720626  0.9452674996612558  0.5653329401113609
  0.0535504889796599  0.5631353058250781  0.0653622853033582
  0.5825351954171580  0.3844337449668132  0.2551627871965252
  0.4154835713574627  0.8747575722105765  0.2490575386502698
  0.9125338820938609  0.6193581412900997  0.7520889113945515
  0.9179264503735567  0.8853236613657884  0.2536485615830912
  0.5828514352951828  0.1156017716911251  0.7512109223412722
  0.4159469194403016  0.6198060212308576  0.7447915417297608
  0.0856916965906080  0.1154113941862107  0.7460407018990054
  0.0853173883644871  0.3830024527852061  0.2474653892778633
  0.8343716803562558  0.1059607372782096  0.8293965788078879
  0.1665033177209949  0.6157213595371616  0.6679341630450608
  0.6623565627732759  0.8786156511316818  0.3355003037951789
  0.6636917722745537  0.6046974929472597  0.8296780694473185
  0.8345519301995381  0.3896913480383404  0.3323880887201796
  0.1657748758969575  0.8950938230200620  0.1701603975503119
  0.3360547749161640  0.3922235007306369  0.1703184851672361
  0.3432644118384189  0.1424295487869003  0.6587135767270382
  0.0393897005682007  0.8323895533129431  0.8739749286549383
  0.9564535359715691  0.3409280760302806  0.6254503642151263
  0.4578677370133093  0.1552375299067279  0.3755419903760071
  0.4578119170013579  0.3322192299520950  0.8725170433310581
  0.0436925596895321  0.6639211927660256  0.3743100805854027
  0.9597572661093281  0.1673369698493659  0.1260742348970751
  0.5412455183950797  0.6668559105024201  0.1264189052212714
  0.5428371271643826  0.8331543541267408  0.6239563978744513
  0.3685481402071247  0.2076232825173179  0.9562873989622460
  0.6430191312114104  0.7277785604521725  0.5419691855841080
  0.1291769605849353  0.7878444809496727  0.4589291977778061
  0.1303588405542229  0.7080618671992909  0.9570521721784928
  0.3638401441763506  0.2718486224138061  0.4579390254422933
  0.6305903180485828  0.7917539683410055  0.0428204418652456
  0.8688270222767187  0.2918793578785071  0.0430416290287994
  0.8698785450272624  0.2171591424810302  0.5412510744807761
  0.4488905587723409  0.8361208797595268  0.3789044253522391
  0.5523128268751236  0.3486099419112705  0.1238342242081671
  0.0511051765257875  0.1506450181804269  0.8759498604669176
  0.0549720671180012  0.3463807121401743  0.3771700223597705
  0.4464441088219075  0.6504842646699132  0.8755570318429378
  0.5587526444724134  0.1504965171727051  0.6211770412444864
  0.9469782351322067  0.6584203859217865  0.6230720098667319
  0.9485923004848402  0.8491544714409898  0.1238702655041592
  0.1361032642506501  0.2516002890195068  0.6253202134857716
  0.8586348907029020  0.7446895471353017  0.8766208042068868
  0.3604224796031943  0.7542904427511985  0.1241383929565671
  0.3620106077104239  0.7572502977831448  0.6227311054685174
  0.1405138932480625  0.2555026767400790  0.1234149410093863
  0.8641136748317493  0.7544793363361819  0.3746009866363664
  0.6365945451165729  0.2531825988170553  0.3779338850004450
  0.6383904752011205  0.2436123721589283  0.8751923243043720
  0.6309789483062644  0.7568768420955365  0.2143903211007085
  0.3691192096549614  0.2468922873203425  0.2869085093976054
  0.8647578280032704  0.2472258790655175  0.7123623196283049
  0.8709374207415266  0.2585822270070182  0.2142372784230631
  0.6320154019190838  0.7433829830524843  0.7128325567210396
  0.3683127188182098  0.2423497990266767  0.7843479847696315
  0.1278418877761993  0.7405654857103414  0.7860289083054539
  0.1358953038192752  0.7544860516868894  0.2872167111339223

             NaN             NaN             NaN
             NaN             NaN             NaN
             NaN             NaN             NaN
             NaN             NaN             NaN
             NaN             NaN             NaN
             NaN             NaN             NaN
             NaN             NaN             NaN
             NaN             NaN             NaN
             NaN             NaN             NaN
             NaN             NaN             NaN
             NaN             NaN             NaN
             NaN             NaN             NaN
             NaN             NaN             NaN
             NaN             NaN             NaN
             NaN             NaN             NaN
             NaN             NaN             NaN
             NaN             NaN             NaN
             NaN             NaN             NaN
             NaN             NaN             NaN
             NaN             NaN             NaN
             NaN             NaN             NaN
             NaN             NaN             NaN
             NaN             NaN             NaN
             NaN             NaN             NaN
             NaN             NaN             NaN
             NaN             NaN             NaN
             NaN             NaN             NaN
             NaN             NaN             NaN
             NaN             NaN             NaN
             NaN             NaN             NaN
             NaN             NaN             NaN
             NaN             NaN             NaN
             NaN             NaN             NaN
             NaN             NaN             NaN
             NaN             NaN             NaN
             NaN             NaN             NaN
             NaN             NaN             NaN
             NaN             NaN             NaN
             NaN             NaN             NaN
             NaN             NaN             NaN
             NaN             NaN             NaN
             NaN             NaN             NaN
             NaN             NaN             NaN
             NaN             NaN             NaN
             NaN             NaN             NaN
             NaN             NaN             NaN
             NaN             NaN             NaN
             NaN             NaN             NaN
             NaN             NaN             NaN
             NaN             NaN             NaN
             NaN             NaN             NaN
             NaN             NaN             NaN
             NaN             NaN             NaN
             NaN             NaN             NaN
             NaN             NaN             NaN
             NaN             NaN             NaN
             NaN             NaN             NaN
             NaN             NaN             NaN
             NaN             NaN             NaN
             NaN             NaN             NaN
             NaN             NaN             NaN
             NaN             NaN             NaN
             NaN             NaN             NaN
             NaN             NaN             NaN
             NaN             NaN             NaN
             NaN             NaN             NaN
             NaN             NaN             NaN
             NaN             NaN             NaN
             NaN             NaN             NaN
             NaN             NaN             NaN
             NaN             NaN             NaN
             NaN             NaN             NaN
             NaN             NaN             NaN
             NaN             NaN             NaN
             NaN             NaN             NaN
             NaN             NaN             NaN
             NaN             NaN             NaN
             NaN             NaN             NaN
             NaN             NaN             NaN
