user_Na5AlS4_Na5AlS4 NEB_v2 image 01
  1.0
     12.1026382039385112      0.0000000000000000      0.0000000000000007
     -0.0000000000000004      7.0938170788834114      0.0000000000000004
      0.0000000000000000      0.0000000000000000     21.6510149562332330
  Na  Al  S
  39  8  32
Direct
  0.3487183967547154  0.8969363084267256  0.4997790053844804
  0.6512829131632931  0.4069027261478855  0.0012813984074746
  0.1515886588629696  0.0924228305914783  0.9979275689782563
  0.1604491507688053  0.4128124494692608  0.5024483794164250
  0.3483500772559933  0.5918307821167995  0.9982394327280785
  0.6503844209479769  0.1019415693103846  0.5004386382721251
  0.8514791211674982  0.5969349930047051  0.4989331126585523
  0.8476532498016638  0.9070883479845732  0.0020262899794988
  0.2911252642032929  0.5417433902706217  0.3634846348719525
  0.7114240755261210  0.0521870982485142  0.1387140725855302
  0.2108865228600428  0.4478897614795754  0.8615538297111200
  0.2129417776667389  0.0471571900945573  0.3659387274743283
  0.2873672947935472  0.9475254318360828  0.8610818085397119
  0.7054698546095497  0.4528979055622768  0.6327088568779571
  0.7864461478916696  0.9539613684063770  0.6339918515601308
  0.7887085780318372  0.5520763971374120  0.1383006184556179
  0.5279173395794232  0.5312940739999710  0.4617419279168496
  0.4463281564650555  0.0626927787022220  0.0652561969392017
  0.9462552483621778  0.4369263018784909  0.9346853952070378
  0.9479938390921493  0.0609490556822637  0.4349033940902575
  0.5526592167721230  0.9361576738930922  0.9342575255699802
  0.0532938076720630  0.9452674996612530  0.5653329401113597
  0.0535504889796623  0.5631353058250761  0.0653622853033547
  0.5825351954171560  0.3844337449668124  0.2551627871965221
  0.4154835713574598  0.8747575722105776  0.2490575386502710
  0.9125338820938589  0.6193581412901012  0.7520889113945490
  0.9179264503735599  0.8853236613657882  0.2536485615830897
  0.5828514352951844  0.1156017716911258  0.7512109223412742
  0.4159469194403011  0.6198060212308542  0.7447915417297634
  0.0856916965906104  0.1154113941862103  0.7460407018990042
  0.0853173883644882  0.3830024527852067  0.2474653892778613
  0.8343716803562548  0.1059607372782073  0.8293965788078850
  0.1665033177209957  0.6157213595371628  0.6679341630450639
  0.6623565627732790  0.8786156511316786  0.3355003037951797
  0.6636917722745526  0.6046974929472616  0.8296780694473216
  0.8345519301995417  0.3896913480383381  0.3323880887201811
  0.1657748758969571  0.8950938230200643  0.1701603975503121
  0.3360547749161635  0.3922235007306338  0.1703184851672343
  0.3432644118384182  0.1424295487868989  0.6587135767270359
  0.0393897005682013  0.8323895533129407  0.8739749286549365
  0.9564535359715713  0.3409280760302835  0.6254503642151268
  0.4578677370133058  0.1552375299067311  0.3755419903760103
  0.4578119170013548  0.3322192299520921  0.8725170433310564
  0.0436925596895290  0.6639211927660285  0.3743100805853993
  0.9597572661093284  0.1673369698493635  0.1260742348970786
  0.5412455183950807  0.6668559105024219  0.1264189052212696
  0.5428371271643851  0.8331543541267425  0.6239563978744507
  0.3685481402071236  0.2076232825173200  0.9562873989622465
  0.6430191312114080  0.7277785604521695  0.5419691855841092
  0.1291769605849318  0.7878444809496706  0.4589291977778088
  0.1303588405542220  0.7080618671992922  0.9570521721784930
  0.3638401441763488  0.2718486224138063  0.4579390254422909
  0.6305903180485848  0.7917539683410038  0.0428204418652425
  0.8688270222767190  0.2918793578785060  0.0430416290287972
  0.8698785450272624  0.2171591424810285  0.5412510744807744
  0.4488905587723388  0.8361208797595243  0.3789044253522417
  0.5523128268751213  0.3486099419112710  0.1238342242081706
  0.0511051765257904  0.1506450181804291  0.8759498604669187
  0.0549720671180031  0.3463807121401722  0.3771700223597696
  0.4464441088219075  0.6504842646699163  0.8755570318429412
  0.5587526444724145  0.1504965171727083  0.6211770412444895
  0.9469782351322058  0.6584203859217894  0.6230720098667295
  0.9485923004848410  0.8491544714409872  0.1238702655041579
  0.1361032642506473  0.2516002890195056  0.6253202134857743
  0.8586348907029041  0.7446895471353001  0.8766208042068858
  0.3604224796031975  0.7542904427512015  0.1241383929565693
  0.3620106077104214  0.7572502977831453  0.6227311054685198
  0.1405138932480600  0.2555026767400808  0.1234149410093890
  0.8641136748317512  0.7544793363361791  0.3746009866363663
  0.6365945451165754  0.2531825988170576  0.3779338850004460
  0.6383904752011171  0.2436123721589252  0.8751923243043713
  0.6309789483062667  0.7568768420955401  0.2143903211007084
  0.3691192096549600  0.2468922873203420  0.2869085093976062
  0.8647578280032728  0.2472258790655180  0.7123623196283080
  0.8709374207415290  0.2585822270070153  0.2142372784230660
  0.6320154019190826  0.7433829830524877  0.7128325567210362
  0.3683127188182131  0.2423497990266800  0.7843479847696290
  0.1278418877761989  0.7405654857103405  0.7860289083054508
  0.1358953038192729  0.7544860516868921  0.2872167111339191
