Na3AlS3 bottleneck NEB image 10
  1.0
     12.1828203277415312      0.0000000000000000      0.0000000000000007
     -0.0000000000000005      7.5674693205415418      1.1970639402156102
      0.0000000000000000      0.0113082934473333     13.7304524371335805
  Na  Al  S
  23  8  24
Direct
  0.8314956776613788  0.0783657035028649  0.9604140675548123
  0.8263877284934327  0.4964336923595701  0.7438558083363929
  0.7480955149887967  0.9529543191252425  0.5197883600121084
  0.9033413786597689  0.1283680303058552  0.3450238472227419
  0.2465536959835950  0.5351396254923676  0.4832271016994594
  0.8256083665905209  0.5214072005831616  0.2389632142358302
  0.2476154903632108  0.0256096613622909  0.4866781381579196
  0.7494571309886325  0.5192754555812649  0.0008841219323518
  0.4276577338006997  0.3797817277622008  0.6523606317838220
  0.2601067423437891  0.5016150883034809  0.9849179815985587
  0.2459154769402428  0.0143538991768038  0.9860764552530659
  0.7599117900167816  0.4671209666147448  0.5029947175691096
  0.1874172823115219  0.5003887105547709  0.2461365429856593
  0.0264384654439739  0.9239085970601529  0.1880408739184047
  0.5548748939536711  0.5850949763418448  0.3362202202146224
  0.3223549493012838  0.9819104106761758  0.7507258055392669
  0.0152366614354813  0.9420236282199257  0.7124138795090530
  0.3224611750556268  0.9827658097363838  0.2426878384689156
  0.1765983358086927  0.4972589371517740  0.7487791294305179
  0.4670410704458224  0.4063555131229906  0.1749942210649856
  0.6899140849202967  0.0229862462432284  0.7529581832172367
  0.5251528215090966  0.5867212324074638  0.8055944715323797
  0.6807914429777600  0.9975704642358675  0.2291699028772508
  0.0121534454962799  0.3380437299509987  0.0746760619444065
  0.0146525364909934  0.3360744916413822  0.5716136878774115
  0.5173155391264945  0.1661542556578564  0.4246994176895555
  0.4969906341705687  0.8156093303162739  0.5661360946471421
  0.5133160716492986  0.1674848111335408  0.9230952628824609
  0.4988465361023053  0.8241945727567559  0.0679751429013776
  0.9993080830605389  0.6806290284168269  0.4260128158277371
  0.0020971590492074  0.6674952840318690  0.9232385617047554
  0.3633477330388605  0.3011732550088700  0.8525542484109934
  0.1715088468703361  0.2186067820910849  0.1281014070532631
  0.3730843251082258  0.3308302438512178  0.3673520941448221
  0.1580557085260715  0.7868741748754835  0.8610670944072129
  0.0002981676064712  0.6299129431063235  0.0933214385469634
  0.6383419450745373  0.6730918481660958  0.1441784846970080
  0.8377138980861923  0.7833936876898107  0.3668578062333654
  0.1471712772544097  0.8211626994714453  0.3580413800283354
  0.3381333633611166  0.7135285835532506  0.6285196909917686
  0.5099410045643357  0.8782806396926356  0.8986422954128412
  0.6683850409536614  0.3016973573102346  0.8698431498855064
  0.8628727067682856  0.1985183317450265  0.1411385264852802
  0.1738453248474592  0.2205522615419913  0.6296999843912018
  0.0190843831761961  0.3927287548089205  0.4015141167464708
  0.6404998602089799  0.6534325564644191  0.6257148468737365
  0.5009115081448428  0.1130450003163001  0.0920571662445884
  0.6781293694946914  0.2694044280075324  0.3629734351774230
  0.8621054004027787  0.1915729509106554  0.6264420986030927
  0.0029406562446239  0.6271654540432765  0.5953961402244639
  0.0036775954075804  0.3733370253663760  0.9057168125170603
  0.8489317403604847  0.7908767146298608  0.8565956148312874
  0.5234578763345962  0.0990260822059672  0.5943634867360357
  0.3373618818903171  0.7096518247614338  0.1194812037446688
  0.4928520078201617  0.8839613352770486  0.3965778198059902
