Na4 P4 S12                              
   1.0000000000000000     
     8.0623126118433319    0.0000000000000000    0.0000000000000005
    -0.0000000000000004    6.7891073792301313    0.1112861400662401
     0.0000000000000000    0.1147390313993880    9.1472731836599532
   Na   P    S 
     4     4    12
Direct
  0.5127684351455528  0.7082492767278481  0.7103813540600186
  0.0127684351455528  0.2917507232721519  0.2896186459399814
  0.4872315648544472  0.2917507232721519  0.2896186459399814
  0.9872315648544472  0.7082492767278481  0.7103813540600186
  0.7500000000000000  0.2104552759341658  0.6164888313424584
  0.2500000000000000  0.7895447240658342  0.3835111686575416
  0.7500000000000000  0.3273715518180396  0.9234252578561311
  0.2500000000000000  0.6726284481819604  0.0765747421438689
  0.0559025364766867  0.7625472543102774  0.2250233417075123
  0.5559025364766867  0.2374527456897226  0.7749766582924877
  0.9440974635233133  0.2374527456897226  0.7749766582924877
  0.4440974635233133  0.7625472543102774  0.2250233417075123
  0.7500000000000000  0.6189940973338750  0.9431870164662612
  0.2500000000000000  0.3810059026661250  0.0568129835337388
  0.7500000000000000  0.4411446792182971  0.4754304475253761
  0.2500000000000000  0.5588553207817029  0.5245695524746239
  0.7500000000000000  0.1555568869297588  0.1012200392675027
  0.2500000000000000  0.8444431130702412  0.8987799607324973
  0.7500000000000000  0.9456449047692467  0.5249995325696259
  0.2500000000000000  0.0544105344891435  0.4717201270471136

  0.00000000E+00  0.00000000E+00  0.00000000E+00
  0.00000000E+00  0.00000000E+00  0.00000000E+00
  0.00000000E+00  0.00000000E+00  0.00000000E+00
  0.00000000E+00  0.00000000E+00  0.00000000E+00
  0.00000000E+00  0.00000000E+00  0.00000000E+00
  0.00000000E+00  0.00000000E+00  0.00000000E+00
  0.00000000E+00  0.00000000E+00  0.00000000E+00
  0.00000000E+00  0.00000000E+00  0.00000000E+00
  0.00000000E+00  0.00000000E+00  0.00000000E+00
  0.00000000E+00  0.00000000E+00  0.00000000E+00
  0.00000000E+00  0.00000000E+00  0.00000000E+00
  0.00000000E+00  0.00000000E+00  0.00000000E+00
  0.00000000E+00  0.00000000E+00  0.00000000E+00
  0.00000000E+00  0.00000000E+00  0.00000000E+00
  0.00000000E+00  0.00000000E+00  0.00000000E+00
  0.00000000E+00  0.00000000E+00  0.00000000E+00
  0.00000000E+00  0.00000000E+00  0.00000000E+00
  0.00000000E+00  0.00000000E+00  0.00000000E+00
  0.00000000E+00  0.00000000E+00  0.00000000E+00
  0.00000000E+00  0.00000000E+00  0.00000000E+00
