Na1 Si1 S2                              
   1.0000000000000000     
     3.5511865587483031    0.0000000000000000    0.0000000000000000
     0.0000000000000000    3.5511865587483031    0.0000000000000000
     0.0000000000000000    0.0000000000000000    6.5268864569205576
   Na   Si   S 
     1     1     2
Direct
  0.4999999391872549  0.4999999391872549  0.4616655906571978
  0.0000000000000000  0.0000000000000000  0.9230424967808943
  0.0000000000000000  0.0000000000000000  0.6059274194409880
  0.4999999391872549  0.4999999391872549  0.0147674347588855

  0.00000000E+00  0.00000000E+00  0.00000000E+00
  0.00000000E+00  0.00000000E+00  0.00000000E+00
  0.00000000E+00  0.00000000E+00  0.00000000E+00
  0.00000000E+00  0.00000000E+00  0.00000000E+00
