Na1 Si1 S2                              
   1.0000000000000000     
     3.5511865587483031    0.0000000000000000    0.0000000000000000
     0.0000000000000000    3.5511865587483031    0.0000000000000000
     0.0000000000000000    0.0000000000000000    6.5268864569205576
   Na   Si   S 
     1     1     2
Direct
  0.4999999391872549  0.4999999391872549  0.4616655906571988
  0.0000000000000000 -0.0000000000000000  0.9230424967808956
 -0.0000000000000000 -0.0000000000000000  0.6059274194409886
  0.4999999391872549  0.4999999391872549  0.0193638070411354

  0.00000000E+00  0.00000000E+00  0.00000000E+00
  0.00000000E+00  0.00000000E+00  0.00000000E+00
  0.00000000E+00  0.00000000E+00  0.00000000E+00
  0.00000000E+00  0.00000000E+00  0.00000000E+00
