Na In S 
 1.0000000000000000
     6.8330688911791304    0.0000000000000000   -0.1272470229470229
    -0.0000000000000005    8.8359252756919275    0.0000000000000005
    -0.0048172062806638    0.0000000000000000    7.8804846921668430
 Na  In  S  
   9   2   8
Direct
  0.6776609224353372  0.5218792389525196  0.6568619382643476
  0.0268748466173783 -0.0103066313774110  0.0228103058503191
  0.3408854499420204  0.4807929227726163  0.3322691391911970
  0.6371534838028082  0.9841201761931699  0.6529802015692830
  0.0000614519512181  0.2284602212693373  0.5049817427910223
  0.0669066466400929  0.7897550295344065  0.4679521838668523
  0.6376826818801050  0.2278121945720455  0.1652324398297805
  0.3332582830248957  0.7403985406151532  0.8441587424948251
 -0.0247444146849591  0.4929119565314014  0.0009798856120212
  0.6487021876111830  0.7578894534849387  0.1816057360471077
  0.3412977912316585  0.2564392064108555  0.8259202048529707
  0.7583470601521403  0.7550608554934846  0.8795750574970369
  0.2242447045623383  0.2559100824470634  0.1221428751296398
  0.2261490194121727  0.0133638172272911  0.6943242546685606
  0.7579039841097334  0.5127425047352053  0.3188415335866638
  0.7892250068383956  0.9830960914775116  0.3318369757321880
  0.2216422051174102  0.4850196742762087  0.6626257377349574
  0.7106233609063933  0.2525971202478037  0.8188194157471234
  0.2825460021664736  0.7518943059861347  0.1810351162406772
Cartesian
  0.0000000000000000  0.0000000000000000  0.0000000000000000
  0.0000000000000000  0.0000000000000000  0.0000000000000000
  0.0000000000000000  0.0000000000000000  0.0000000000000000
  0.0000000000000000  0.0000000000000000  0.0000000000000000
  0.0000000000000000  0.0000000000000000  0.0000000000000000
  0.0000000000000000  0.0000000000000000  0.0000000000000000
  0.0000000000000000  0.0000000000000000  0.0000000000000000
  0.0000000000000000  0.0000000000000000  0.0000000000000000
  0.0000000000000000  0.0000000000000000  0.0000000000000000
  0.0000000000000000  0.0000000000000000  0.0000000000000000
  0.0000000000000000  0.0000000000000000  0.0000000000000000
  0.0000000000000000  0.0000000000000000  0.0000000000000000
  0.0000000000000000  0.0000000000000000  0.0000000000000000
  0.0000000000000000  0.0000000000000000  0.0000000000000000
  0.0000000000000000  0.0000000000000000  0.0000000000000000
  0.0000000000000000  0.0000000000000000  0.0000000000000000
  0.0000000000000000  0.0000000000000000  0.0000000000000000
  0.0000000000000000  0.0000000000000000  0.0000000000000000
  0.0000000000000000  0.0000000000000000  0.0000000000000000
