NMC-532 Li=0.50 (8/16 Li)
1.0
      9.9527610000      0.0000000000      0.0000000000
      0.0454069803      5.8843758104      0.0000000000
     -3.0944645089      0.2570778203      9.4207270363
  Li  Ni  Mn  Co  O
  8  12  2  2  32
Direct
      0.0000000000      0.0017030000      0.9959920000
      0.0000000000      0.9983110000      0.0032410000
      0.0000000000      0.0006650000      0.2388250000
      0.0000000000      0.0001290000      0.2557670000
      0.0000000000      0.4973520000      0.4963210000
      0.0000000000      0.5023210000      0.5036010000
      0.0000000000      0.9999910000      0.7439210000
      0.0000000000      0.9993270000      0.7611180000
      0.0000000000      0.2500010000      0.0000040000
      0.0000000000      0.7499960000      0.9999730000
      0.0000000000      0.7485790000      0.2527940000
      0.0000000000      0.2485710000      0.2526480000
      0.0000000000      0.2500020000      0.0000070000
      0.0000000000      0.7499930000      0.0000100000
      0.0000000000      0.7502830000      0.2499390000
      0.0000000000      0.2502070000      0.2502230000
      0.0000000000      0.7497150000      0.7500800000
      0.0000000000      0.2497980000      0.7497680000
      0.0000000000      0.7514140000      0.7472120000
      0.0000000000      0.2514280000      0.7473540000
      0.0000000000      0.2500000000      0.5000010000
      0.0000000000      0.7500080000      0.4999760000
      0.0000000000      0.2500080000      0.5000060000
      0.0000000000      0.7499940000      0.5000200000
      0.0000000000      0.1390760000      0.7412790000
      0.0000000000      0.8608510000      0.2586080000
      0.0000000000      0.8616580000      0.0245840000
      0.0000000000      0.1360820000      0.4807230000
      0.0000000000      0.1468410000      0.7538430000
      0.0000000000      0.8527070000      0.2450860000
      0.0000000000      0.8666130000      0.0175380000
      0.0000000000      0.1368300000      0.4803310000
      0.0000000000      0.1403650000      0.2690780000
      0.0000000000      0.8594760000      0.7309430000
      0.0000000000      0.8631200000      0.5199490000
      0.0000000000      0.1335140000      0.9823170000
      0.0000000000      0.1389340000      0.2772680000
      0.0000000000      0.8617360000      0.7216190000
      0.0000000000      0.8639110000      0.5190160000
      0.0000000000      0.1383850000      0.9755790000
      0.0000000000      0.6391330000      0.7412750000
      0.0000000000      0.3609240000      0.2587220000
      0.0000000000      0.3616160000      0.0244240000
      0.0000000000      0.6360910000      0.4809810000
      0.0000000000      0.6472650000      0.7549250000
      0.0000000000      0.3531610000      0.2461590000
      0.0000000000      0.3664880000      0.0176650000
      0.0000000000      0.6368730000      0.4801020000
      0.0000000000      0.6405640000      0.2690100000
      0.0000000000      0.3596260000      0.7309320000
      0.0000000000      0.3631750000      0.5196370000
      0.0000000000      0.6333720000      0.9824900000
      0.0000000000      0.6382630000      0.2784350000
      0.0000000000      0.3610760000      0.7227790000
      0.0000000000      0.3639180000      0.5192770000
      0.0000000000      0.6383450000      0.9754300000
