S28                                     
   1.0000000000000000     
     0.0000000000000000   10.3073670864010332   -0.3728557308287062
     8.3942472056300730    0.0000000000000000    0.0000000000000000
     0.0000000000000000   -1.7325198006300944  -10.7072151822000858
   S 
    28
Direct
  0.8864231410188463  0.9340095028596300  0.6781263856717796
  0.3295632636351114  0.3774876456762742  0.5507077211243121
  0.9126712853297423  0.2104837698600346  0.9119604713819615
  0.2397364047680330  0.6016620935532456  0.7765741886874081
  0.1444175160456347  0.6113775242983550  0.2243966804343256
  0.8555824839543655  0.3886224757016447  0.7756033195656739
  0.7602635952319668  0.3983379064467552  0.2234258113125920
  0.1704367363648881  0.8774876456762746  0.4492922788756876
  0.4126712853297418  0.2895162301399652  0.9119604713819615
  0.3864231410188453  0.5659904971403700  0.6781263856717796
  0.6444175160456345  0.8886224757016450  0.2243966804343256
  0.8295632636351122  0.1225123543237259  0.5507077211243121
  0.2602635952319675  0.1016620935532453  0.2234258113125921
  0.6135768589811537  0.4340095028596301  0.3218736143282200
  0.1135768589811545  0.0659904971403699  0.3218736143282200
  0.0598957000750093  0.6901754680931109  0.3744843668261055
  0.7434252096043045  0.5786886868623486  0.0711652340781904
  0.5873287146702577  0.7104837698600349  0.0880395286180452
  0.2565747903956953  0.4213113131376501  0.9288347659218101
  0.0873287146702581  0.7895162301399651  0.0880395286180452
  0.4401042999249908  0.1901754680931105  0.6255156331738954
  0.3555824839543651  0.1113775242983551  0.7756033195656739
  0.7397364047680332  0.8983379064467544  0.7765741886874081
  0.9401042999249899  0.3098245319068893  0.6255156331738954
  0.2434252096043046  0.9213113131376514  0.0711652340781904
  0.7565747903956955  0.0786886868623495  0.9288347659218101
  0.5598957000750101  0.8098245319068891  0.3744843668261055
  0.6704367363648878  0.6225123543237254  0.4492922788756876

  0.00000000E+00  0.00000000E+00  0.00000000E+00
  0.00000000E+00  0.00000000E+00  0.00000000E+00
  0.00000000E+00  0.00000000E+00  0.00000000E+00
  0.00000000E+00  0.00000000E+00  0.00000000E+00
  0.00000000E+00  0.00000000E+00  0.00000000E+00
  0.00000000E+00  0.00000000E+00  0.00000000E+00
  0.00000000E+00  0.00000000E+00  0.00000000E+00
  0.00000000E+00  0.00000000E+00  0.00000000E+00
  0.00000000E+00  0.00000000E+00  0.00000000E+00
  0.00000000E+00  0.00000000E+00  0.00000000E+00
  0.00000000E+00  0.00000000E+00  0.00000000E+00
  0.00000000E+00  0.00000000E+00  0.00000000E+00
  0.00000000E+00  0.00000000E+00  0.00000000E+00
  0.00000000E+00  0.00000000E+00  0.00000000E+00
  0.00000000E+00  0.00000000E+00  0.00000000E+00
  0.00000000E+00  0.00000000E+00  0.00000000E+00
  0.00000000E+00  0.00000000E+00  0.00000000E+00
  0.00000000E+00  0.00000000E+00  0.00000000E+00
  0.00000000E+00  0.00000000E+00  0.00000000E+00
  0.00000000E+00  0.00000000E+00  0.00000000E+00
  0.00000000E+00  0.00000000E+00  0.00000000E+00
  0.00000000E+00  0.00000000E+00  0.00000000E+00
  0.00000000E+00  0.00000000E+00  0.00000000E+00
  0.00000000E+00  0.00000000E+00  0.00000000E+00
  0.00000000E+00  0.00000000E+00  0.00000000E+00
  0.00000000E+00  0.00000000E+00  0.00000000E+00
  0.00000000E+00  0.00000000E+00  0.00000000E+00
  0.00000000E+00  0.00000000E+00  0.00000000E+00
