generated by phonopy
   1.0
     0.0000000000000000   10.3073670864010332   -0.3728557308287062
    16.7884944112601460    0.0000000000000000    0.0000000000000000
     0.0000000000000000   -1.7325198006300944  -10.7072151822000858
S
  56
Direct
  0.8864231410188466  0.4670047514298151  0.6781263856717796
  0.8864231410188466  0.9670047514298150  0.6781263856717796
  0.3295632636351115  0.1887438228381371  0.5507077211243121
  0.3295632636351115  0.6887438228381371  0.5507077211243121
  0.9126712853297424  0.1052418849300173  0.9119604713819616
  0.9126712853297424  0.6052418849300173  0.9119604713819616
  0.2397364047680330  0.3008310467766228  0.7765741886874081
  0.2397364047680330  0.8008310467766229  0.7765741886874081
  0.1444175160456347  0.3056887621491775  0.2243966804343256
  0.1444175160456347  0.8056887621491775  0.2243966804343256
  0.8555824839543655  0.1943112378508224  0.7756033195656739
  0.8555824839543655  0.6943112378508224  0.7756033195656739
  0.7602635952319670  0.1991689532233776  0.2234258113125920
  0.7602635952319670  0.6991689532233776  0.2234258113125920
  0.1704367363648881  0.4387438228381373  0.4492922788756876
  0.1704367363648881  0.9387438228381373  0.4492922788756876
  0.4126712853297418  0.1447581150699826  0.9119604713819615
  0.4126712853297418  0.6447581150699826  0.9119604713819615
  0.3864231410188453  0.2829952485701850  0.6781263856717796
  0.3864231410188453  0.7829952485701851  0.6781263856717796
  0.6444175160456345  0.4443112378508225  0.2243966804343256
  0.6444175160456345  0.9443112378508225  0.2243966804343256
  0.8295632636351122  0.0612561771618630  0.5507077211243121
  0.8295632636351122  0.5612561771618629  0.5507077211243121
  0.2602635952319675  0.0508310467766227  0.2234258113125921
  0.2602635952319675  0.5508310467766226  0.2234258113125921
  0.6135768589811538  0.2170047514298150  0.3218736143282200
  0.6135768589811538  0.7170047514298150  0.3218736143282200
  0.1135768589811545  0.0329952485701850  0.3218736143282200
  0.1135768589811545  0.5329952485701850  0.3218736143282200
  0.0598957000750093  0.3450877340465555  0.3744843668261055
  0.0598957000750093  0.8450877340465555  0.3744843668261055
  0.7434252096043045  0.2899399894584496  0.0711652340781904
  0.7434252096043045  0.7893443434311743  0.0711652340781904
  0.5873287146702578  0.3552418849300175  0.0880395286180452
  0.5873287146702578  0.8552418849300174  0.0880395286180452
  0.2565747903956953  0.2106556565688250  0.9288347659218101
  0.2565747903956953  0.7106556565688251  0.9288347659218101
  0.0873287146702581  0.3947581150699825  0.0880395286180452
  0.0873287146702581  0.8947581150699827  0.0880395286180452
  0.4401042999249909  0.0950877340465553  0.6255156331738954
  0.4401042999249909  0.5950877340465552  0.6255156331738954
  0.3555824839543651  0.0556887621491776  0.7756033195656739
  0.3555824839543651  0.5556887621491775  0.7756033195656739
  0.7397364047680332  0.4491689532233772  0.7765741886874081
  0.7397364047680332  0.9491689532233771  0.7765741886874081
  0.9401042999249901  0.1549122659534447  0.6255156331738954
  0.9401042999249901  0.6549122659534447  0.6255156331738954
  0.2434252096043046  0.4606556565688257  0.0711652340781904
  0.2434252096043046  0.9606556565688257  0.0711652340781904
  0.7565747903956956  0.0393443434311748  0.9288347659218102
  0.7565747903956956  0.5393443434311748  0.9288347659218102
  0.5598957000750102  0.4049122659534445  0.3744843668261055
  0.5598957000750102  0.9049122659534445  0.3744843668261055
  0.6704367363648878  0.3112561771618627  0.4492922788756876
  0.6704367363648878  0.8112561771618627  0.4492922788756876
