Na12 Sn4 S14                            
   1.0000000000000000     
     7.0903944811587873    0.0013607394501572    1.2603456172021195
    -1.1550082248895976    6.9956880827046746    1.2603456172021195
    -0.0215146295170873   -0.0253629513938757   15.3236557592775693
   Na   Sn   S 
    12     4    14
Direct
  0.9540223459062602  0.2411528574847068  0.4262052350000616
  0.7588471425152932  0.0459776540937398  0.0737947649999384
  0.0459776540937398  0.7588471425152932  0.5737947649999384
  0.2411528574847068  0.9540223459062602  0.9262052350000616
  0.4994187368099432  0.9588364758888730  0.6366779999157046
  0.0411635241111270  0.5005812631900568  0.8633220000842954
  0.4315455574323721  0.5684544425676279  0.2500000000000000
  0.5684544425676279  0.4315455574323721  0.7500000000000000
  0.5000000000000000  0.5000000000000000  0.0000000000000000
  0.5000000000000000  0.5000000000000000  0.5000000000000000
  0.5005812631900568  0.0411635241111270  0.3633220000842954
  0.9588364758888730  0.4994187368099432  0.1366779999157046
  0.2477076604164381  0.0708534634846316  0.1361164742336030
  0.9291465365153684  0.7522923395835619  0.3638835257663970
  0.7522923395835619  0.9291465365153684  0.8638835257663970
  0.0708534634846316  0.2477076604164381  0.6361164742336030
  0.7710963778943096  0.3128259866289085  0.6030273962237871
  0.2289036221056904  0.6871740133710915  0.3969726037762129
  0.8577601809122868  0.7340593235718842  0.9845055893476626
  0.2659406764281158  0.1422398190877132  0.5154944106523374
  0.1422398190877132  0.2659406764281158  0.0154944106523374
  0.7340593235718842  0.8577601809122868  0.4845055893476626
  0.7577488916192223  0.4881397033077945  0.3198560723240362
  0.5118602966922055  0.2422511083807777  0.1801439276759638
  0.2422511083807777  0.5118602966922055  0.6801439276759638
  0.4881397033077945  0.7577488916192223  0.8198560723240362
  0.9533903579553989  0.0465954575172416  0.2480434092840438
  0.0466025497809213  0.9533974502190787  0.7500000000000000
  0.3128259866289085  0.7710963778943096  0.1030273962237871
  0.6871740133710915  0.2289036221056904  0.8969726037762129

  0.00000000E+00  0.00000000E+00  0.00000000E+00
  0.00000000E+00  0.00000000E+00  0.00000000E+00
  0.00000000E+00  0.00000000E+00  0.00000000E+00
  0.00000000E+00  0.00000000E+00  0.00000000E+00
  0.00000000E+00  0.00000000E+00  0.00000000E+00
  0.00000000E+00  0.00000000E+00  0.00000000E+00
  0.00000000E+00  0.00000000E+00  0.00000000E+00
  0.00000000E+00  0.00000000E+00  0.00000000E+00
  0.00000000E+00  0.00000000E+00  0.00000000E+00
  0.00000000E+00  0.00000000E+00  0.00000000E+00
  0.00000000E+00  0.00000000E+00  0.00000000E+00
  0.00000000E+00  0.00000000E+00  0.00000000E+00
  0.00000000E+00  0.00000000E+00  0.00000000E+00
  0.00000000E+00  0.00000000E+00  0.00000000E+00
  0.00000000E+00  0.00000000E+00  0.00000000E+00
  0.00000000E+00  0.00000000E+00  0.00000000E+00
  0.00000000E+00  0.00000000E+00  0.00000000E+00
  0.00000000E+00  0.00000000E+00  0.00000000E+00
  0.00000000E+00  0.00000000E+00  0.00000000E+00
  0.00000000E+00  0.00000000E+00  0.00000000E+00
  0.00000000E+00  0.00000000E+00  0.00000000E+00
  0.00000000E+00  0.00000000E+00  0.00000000E+00
  0.00000000E+00  0.00000000E+00  0.00000000E+00
  0.00000000E+00  0.00000000E+00  0.00000000E+00
  0.00000000E+00  0.00000000E+00  0.00000000E+00
  0.00000000E+00  0.00000000E+00  0.00000000E+00
  0.00000000E+00  0.00000000E+00  0.00000000E+00
  0.00000000E+00  0.00000000E+00  0.00000000E+00
  0.00000000E+00  0.00000000E+00  0.00000000E+00
  0.00000000E+00  0.00000000E+00  0.00000000E+00
