Na12 Sn4 S14                            
   1.0000000000000000     
     7.0903944811587873    0.0013607394501572    1.2603456172021195
    -1.1550082248895976    6.9956880827046746    1.2603456172021195
    -0.0215146295170873   -0.0253629513938757   15.3236557592775693
   Na   Sn   S 
    12     4    14
Direct
  0.9540223459062636  0.2411528574847084  0.4262052350000612
  0.7588471425152917  0.0459776540937365  0.0737947649999388
  0.0459776540937365  0.7588471425152917  0.5737947649999390
  0.2411528574847084  0.9540223459062636  0.9262052350000610
  0.4994187368099413  0.9588364758888711  0.6366779999157040
  0.0411635241111289  0.5005812631900587  0.8633220000842960
  0.4315455574323689  0.5684544425676312  0.2500000000000000
  0.5684544425676312  0.4315455574323689  0.7500000000000000
  0.5000000000000000  0.5000000000000000  0.0000000000000000
  0.5000000000000000  0.5000000000000000  0.5000000000000000
  0.5005812631900587  0.0411635241111289  0.3633220000842961
  0.9588364758888711  0.4994187368099413  0.1366779999157039
  0.2477076604164368  0.0708534634846328  0.1361164742336027
  0.9291465365153670  0.7522923395835632  0.3638835257663973
  0.7522923395835632  0.9291465365153670  0.8638835257663974
  0.0708534634846328  0.2477076604164368  0.6361164742336026
  0.7710963778943077  0.3128259866289072  0.6030273962237865
  0.2289036221056922  0.6871740133710929  0.3969726037762136
  0.8577601809122868  0.7340593235718854  0.9845055893476623
  0.2659406764281145  0.1422398190877132  0.5154944106523377
  0.1422398190877132  0.2659406764281145  0.0154944106523377
  0.7340593235718854  0.8577601809122868  0.4845055893476624
  0.7577488916192234  0.4881397033077955  0.3198560723240336
  0.5118602966922042  0.2422511083807766  0.1801439276759664
  0.2422511083807766  0.5118602966922042  0.6801439276759664
  0.4881397033077955  0.7577488916192234  0.8198560723240336
  0.9533974502190804  0.0466025497809197  0.2500000000000000
  0.0466025497809197  0.9533974502190804  0.7500000000000000
  0.3128259866289072  0.7710963778943077  0.1030273962237865
  0.6871740133710929  0.2289036221056922  0.8969726037762135

  0.00000000E+00  0.00000000E+00  0.00000000E+00
  0.00000000E+00  0.00000000E+00  0.00000000E+00
  0.00000000E+00  0.00000000E+00  0.00000000E+00
  0.00000000E+00  0.00000000E+00  0.00000000E+00
  0.00000000E+00  0.00000000E+00  0.00000000E+00
  0.00000000E+00  0.00000000E+00  0.00000000E+00
  0.00000000E+00  0.00000000E+00  0.00000000E+00
  0.00000000E+00  0.00000000E+00  0.00000000E+00
  0.00000000E+00  0.00000000E+00  0.00000000E+00
  0.00000000E+00  0.00000000E+00  0.00000000E+00
  0.00000000E+00  0.00000000E+00  0.00000000E+00
  0.00000000E+00  0.00000000E+00  0.00000000E+00
  0.00000000E+00  0.00000000E+00  0.00000000E+00
  0.00000000E+00  0.00000000E+00  0.00000000E+00
  0.00000000E+00  0.00000000E+00  0.00000000E+00
  0.00000000E+00  0.00000000E+00  0.00000000E+00
  0.00000000E+00  0.00000000E+00  0.00000000E+00
  0.00000000E+00  0.00000000E+00  0.00000000E+00
  0.00000000E+00  0.00000000E+00  0.00000000E+00
  0.00000000E+00  0.00000000E+00  0.00000000E+00
  0.00000000E+00  0.00000000E+00  0.00000000E+00
  0.00000000E+00  0.00000000E+00  0.00000000E+00
  0.00000000E+00  0.00000000E+00  0.00000000E+00
  0.00000000E+00  0.00000000E+00  0.00000000E+00
  0.00000000E+00  0.00000000E+00  0.00000000E+00
  0.00000000E+00  0.00000000E+00  0.00000000E+00
  0.00000000E+00  0.00000000E+00  0.00000000E+00
  0.00000000E+00  0.00000000E+00  0.00000000E+00
  0.00000000E+00  0.00000000E+00  0.00000000E+00
  0.00000000E+00  0.00000000E+00  0.00000000E+00
