Na16 S32
1.0
   9.5806887876217459    0.0000000000000000    0.0000000000000006
   0.0000000000000015    9.5806887876217459    0.0000000000000006
   0.0000000000000000    0.0000000000000000   11.6619543987304990
Na S
16 32
direct
   0.0000000000000000    0.0000000000000000    0.8280216700000000 Na
   0.0000000000000000    0.0000000000000000    0.1719783300000000 Na
   0.0000000000000000    0.5000000000000000    0.4219783300000000 Na
   0.0000000000000000    0.5000000000000000    0.0780216700000000 Na
   0.2500000000000000    0.2274061000000000    0.3750000000000000 Na
   0.7725939000000001    0.2500000000000000    0.6250000000000000 Na
   0.7274060999999999    0.2500000000000000    0.1250000000000000 Na
   0.2500000000000000    0.2725939000000001    0.8750000000000000 Na
   0.5000000000000000    0.5000000000000000    0.3280216700000000 Na
   0.5000000000000000    0.5000000000000000    0.6719783300000000 Na
   0.5000000000000000    0.0000000000000000    0.9219783300000000 Na
   0.5000000000000000    0.0000000000000000    0.5780216700000000 Na
   0.7500000000000000    0.7274060999999999    0.8750000000000000 Na
   0.2725938999999999    0.7500000000000000    0.1250000000000000 Na
   0.2274061000000001    0.7500000000000000    0.6250000000000000 Na
   0.7500000000000000    0.7725939000000001    0.3750000000000000 Na
   0.2480662550000000    0.4677628850000001    0.2040999250000000 S
   0.5322371149999999    0.2480662550000000    0.7959000749999999 S
   0.9677628850000001    0.2519337450000000    0.2959000749999999 S
   0.2480662550000000    0.0322371149999999    0.0459000750000000 S
   0.7519337450000000    0.9677628850000001    0.0459000750000000 S
   0.2519337450000000    0.0322371149999999    0.7040999250000001 S
   0.4677628850000001    0.7480662550000000    0.4540999250000001 S
   0.5322371149999999    0.2519337450000000    0.4540999250000001 S
   0.3837929050000000    0.3535015150000000    0.1021109250000000 S
   0.1464984850000000    0.8837929050000000    0.3978890749999999 S
   0.3535015150000000    0.6162070950000000    0.8978890749999999 S
   0.3837929050000000    0.1464984850000000    0.1478890750000000 S
   0.6162070950000000    0.8535015150000000    0.1478890750000000 S
   0.1162070950000000    0.1464984850000000    0.6021109250000001 S
   0.3535015150000000    0.8837929050000000    0.3521109250000001 S
   0.6464984850000000    0.1162070950000000    0.3521109250000001 S
   0.7480662550000000    0.9677628850000001    0.7040999250000001 S
   0.0322371150000000    0.7480662550000000    0.2959000750000000 S
   0.4677628850000000    0.7519337450000000    0.7959000749999999 S
   0.7480662550000000    0.5322371149999999    0.5459000749999999 S
   0.2519337450000001    0.4677628850000000    0.5459000749999999 S
   0.7519337450000000    0.5322371149999999    0.2040999250000000 S
   0.9677628850000001    0.2480662549999999    0.9540999250000001 S
   0.0322371150000000    0.7519337450000000    0.9540999250000001 S
   0.8837929050000000    0.8535015150000000    0.6021109250000001 S
   0.6464984850000000    0.3837929050000000    0.8978890749999999 S
   0.8535015150000000    0.1162070950000000    0.3978890749999999 S
   0.8837929050000000    0.6464984850000000    0.6478890749999999 S
   0.1162070950000000    0.3535015150000000    0.6478890749999999 S
   0.6162070950000000    0.6464984850000000    0.1021109250000001 S
   0.8535015150000000    0.3837929050000000    0.8521109250000001 S
   0.1464984850000000    0.6162070950000000    0.8521109250000001 S
