Na4 Zn6 S8                              
   1.0000000000000000     
     2.7562694916285655   -5.3008487895732319    0.0000000005333794
     5.7438161111459829   -0.3804126893956827    6.4783888231200475
    -2.9875475773844680   -4.9204370930852974    6.4783888257341813
   Na   Zn   S 
     4     6     8
Direct
  0.7533123725168451  0.6228610160141486  0.3771389839858514
  0.2466876274831549  0.3771389839858514  0.6228610160141486
  0.7466876274888747  0.1228610160096011  0.8771389839901076
  0.2533123725111253  0.8771389839903989  0.1228610160098924
  0.7500000000075389  0.4595361552314898  0.0404638447713594
  0.2499999999924611  0.5404638447685102  0.9595361552286406
  0.7499999999924611  0.0404638447685102  0.4595361552286406
  0.2500000000000000  0.2500000000000000  0.2500000000000000
  0.7500000000000000  0.7500000000000000  0.7500000000000000
  0.2500000000075389  0.9595361552314898  0.5404638447713594
  0.0884365504560447  0.7698044731657591  0.5052423960510206
  0.5861211597816691  0.0075577862630780  0.2721198639675322
  0.1342011899847790  0.2721198639769256  0.0075577862581895
  0.9138788402235534  0.2278801360170704  0.4924422137472462
  0.3657988100100056  0.4924422137429261  0.2278801360270251
  0.4138788402183309  0.9924422137369220  0.7278801360324678
  0.8657988100152210  0.7278801360230744  0.9924422137418105
  0.6342011899899944  0.5075577862570739  0.7721198639729749

  0.00000000E+00 -0.00000000E+00  0.00000000E+00
  0.00000000E+00 -0.00000000E+00  0.00000000E+00
  0.00000000E+00 -0.00000000E+00  0.00000000E+00
  0.00000000E+00 -0.00000000E+00  0.00000000E+00
  0.00000000E+00 -0.00000000E+00  0.00000000E+00
  0.00000000E+00 -0.00000000E+00  0.00000000E+00
  0.00000000E+00 -0.00000000E+00  0.00000000E+00
  0.00000000E+00 -0.00000000E+00  0.00000000E+00
  0.00000000E+00 -0.00000000E+00  0.00000000E+00
  0.00000000E+00 -0.00000000E+00  0.00000000E+00
  0.00000000E+00 -0.00000000E+00  0.00000000E+00
  0.00000000E+00 -0.00000000E+00  0.00000000E+00
  0.00000000E+00 -0.00000000E+00  0.00000000E+00
  0.00000000E+00 -0.00000000E+00  0.00000000E+00
  0.00000000E+00 -0.00000000E+00  0.00000000E+00
  0.00000000E+00 -0.00000000E+00  0.00000000E+00
  0.00000000E+00 -0.00000000E+00  0.00000000E+00
  0.00000000E+00 -0.00000000E+00  0.00000000E+00
