pymatgen with grid density = 600 / number of atoms
0
Gamma
4 2 2
