Na4 Zn6 S8                              
   1.0000000000000000     
     2.7562694916285655   -5.3008487895732319    0.0000000005333794
     5.7438161111459829   -0.3804126893956827    6.4783888231200475
    -2.9875475773844680   -4.9204370930852974    6.4783888257341813
   Na   Zn   S 
     4     6     8
Direct
  0.7533123725168472  0.6228610160141478  0.3771389839858491
  0.2466876274831527  0.3771389839858522  0.6228610160141508
  0.7466876274888716  0.1228610160096013  0.8771389839901103
  0.2533123725111283  0.8771389839903989  0.1228610160098898
  0.7500000000075420  0.4595361552314892  0.0404638447713580
  0.2499999999924580  0.5404638447685108  0.9595361552286420
  0.7499999999924580  0.0404638447685108  0.4595361552286421
  0.2500000000000000  0.2500000000000000  0.2500000000000000
  0.7500000000000000  0.7500000000000000  0.7500000000000000
  0.2500000000075420  0.9595361552314892  0.5404638447713580
  0.0861211597764458  0.7721198639829289  0.5075577862527506
  0.5861211597816676  0.0075577862630756  0.2721198639675337
  0.1342011899847791  0.2721198639769282  0.0075577862581913
  0.9138788402235541  0.2278801360170712  0.4924422137472495
  0.3657988100100062  0.4924422137429250  0.2278801360270255
  0.4138788402183325  0.9924422137369244  0.7278801360324662
  0.8657988100152209  0.7278801360230718  0.9924422137418087
  0.6342011899899938  0.5075577862570751  0.7721198639729745

  0.00000000E+00 -0.00000000E+00  0.00000000E+00
  0.00000000E+00 -0.00000000E+00  0.00000000E+00
  0.00000000E+00 -0.00000000E+00  0.00000000E+00
  0.00000000E+00 -0.00000000E+00  0.00000000E+00
  0.00000000E+00 -0.00000000E+00  0.00000000E+00
  0.00000000E+00 -0.00000000E+00  0.00000000E+00
  0.00000000E+00 -0.00000000E+00  0.00000000E+00
  0.00000000E+00 -0.00000000E+00  0.00000000E+00
  0.00000000E+00 -0.00000000E+00  0.00000000E+00
  0.00000000E+00 -0.00000000E+00  0.00000000E+00
  0.00000000E+00 -0.00000000E+00  0.00000000E+00
  0.00000000E+00 -0.00000000E+00  0.00000000E+00
  0.00000000E+00 -0.00000000E+00  0.00000000E+00
  0.00000000E+00 -0.00000000E+00  0.00000000E+00
  0.00000000E+00 -0.00000000E+00  0.00000000E+00
  0.00000000E+00 -0.00000000E+00  0.00000000E+00
  0.00000000E+00 -0.00000000E+00  0.00000000E+00
  0.00000000E+00 -0.00000000E+00  0.00000000E+00
