Na16 Zn12 S20                           
   1.0000000000000000     
     3.9242505896860691    0.0000000000000000    0.0000000000000002
    -0.0000000000000008   13.1569337392195393    0.0000000000000008
    -0.0000000000000000   -0.0000000000000000   18.7700698510179897
   Na   Zn   S 
    16    12    20
Direct
  0.2500000000000000  0.9963572241936305  0.7644684276946592
  0.2500000000000000  0.4963572241936305  0.7355315723053408
  0.7500000000000000  0.0036427758063695  0.2355315723053408
  0.7500000000000000  0.5036427758063695  0.2644684276946592
  0.2500000000000000  0.0078544365055748  0.4177218699135068
  0.2500000000000000  0.5078544365055748  0.0822781300864932
  0.7500000000000000  0.9921455634944252  0.5822781300864932
  0.7500000000000000  0.4921455634944252  0.9177218699135068
  0.2500000000000000  0.1089959631062243  0.9509609054407022
  0.2500000000000000  0.6089959631062243  0.5490390945592978
  0.7500000000000000  0.8910040368937757  0.0490390945592978
  0.7500000000000000  0.3910040368937757  0.4509609054407022
  0.2500000000000000  0.2719435510785431  0.8342755654497651
  0.2500000000000000  0.7719435510785431  0.6657244345502349
  0.7500000000000000  0.7280564489214569  0.1657244345502349
  0.7500000000000000  0.2280564489214569  0.3342755654497651
  0.2500000000000000  0.2096353030312343  0.5411071831196494
  0.2500000000000000  0.7096353030312343  0.9588928168803506
  0.7500000000000000  0.7903646969687657  0.4588928168803506
  0.7500000000000000  0.2903646969687657  0.0411071831196494
  0.2500000000000000  0.3203091840603562  0.2170196165793499
  0.2500000000000000  0.8203091840603562  0.2829803834206501
  0.7500000000000000  0.6796908159396438  0.7829803834206501
  0.7500000000000000  0.1796908159396438  0.7170196165793499
  0.2500000000000000  0.5760755258613344  0.3683409169817082
  0.2500000000000000  0.0760755258613344  0.1316590830182918
  0.7500000000000000  0.4239244741386656  0.6316590830182918
  0.7500000000000000  0.9239244741386656  0.8683409169817082
  0.2500000000000000  0.1242498537334313  0.6532670167050227
  0.2500000000000000  0.6242498537334313  0.8467329832949773
  0.7500000000000000  0.8757501462665687  0.3467329832949773
  0.7500000000000000  0.3757501462665687  0.1532670167050298
  0.2500000000000000  0.1491515190599912  0.2456953900063894
  0.2500000000000000  0.6491515190599912  0.2543046099936106
  0.7500000000000000  0.8508484809400088  0.7543046099936106
  0.7500000000000000  0.3508484809400088  0.7456953900063894
  0.2500000000000000  0.3423072408161119  0.9774576441766314
  0.2500000000000000  0.8423072408161119  0.5225423558233686
  0.7500000000000000  0.6576927591838881  0.0225423558233686
  0.7500000000000000  0.1576927591838881  0.4774576441766314
  0.2500000000000000  0.3934077139115288  0.3391149051097031
  0.2500000000000000  0.8934077139115288  0.1608850948902969
  0.7500000000000000  0.6065922860884712  0.6608850948902969
  0.7500000000000000  0.1065922860884712  0.8391149051097031
  0.2500000000000000  0.3884340175966514  0.5620305002553300
  0.2500000000000000  0.8884340175966514  0.9363712105407345
  0.7500000000000000  0.6115659824033486  0.4363712105407345
  0.7500000000000000  0.1115659824033486  0.0636287894592655

  0.00000000E+00  0.00000000E+00  0.00000000E+00
  0.00000000E+00  0.00000000E+00  0.00000000E+00
  0.00000000E+00  0.00000000E+00  0.00000000E+00
  0.00000000E+00  0.00000000E+00  0.00000000E+00
  0.00000000E+00  0.00000000E+00  0.00000000E+00
  0.00000000E+00  0.00000000E+00  0.00000000E+00
  0.00000000E+00  0.00000000E+00  0.00000000E+00
  0.00000000E+00  0.00000000E+00  0.00000000E+00
  0.00000000E+00  0.00000000E+00  0.00000000E+00
  0.00000000E+00  0.00000000E+00  0.00000000E+00
  0.00000000E+00  0.00000000E+00  0.00000000E+00
  0.00000000E+00  0.00000000E+00  0.00000000E+00
  0.00000000E+00  0.00000000E+00  0.00000000E+00
  0.00000000E+00  0.00000000E+00  0.00000000E+00
  0.00000000E+00  0.00000000E+00  0.00000000E+00
  0.00000000E+00  0.00000000E+00  0.00000000E+00
  0.00000000E+00  0.00000000E+00  0.00000000E+00
  0.00000000E+00  0.00000000E+00  0.00000000E+00
  0.00000000E+00  0.00000000E+00  0.00000000E+00
  0.00000000E+00  0.00000000E+00  0.00000000E+00
  0.00000000E+00  0.00000000E+00  0.00000000E+00
  0.00000000E+00  0.00000000E+00  0.00000000E+00
  0.00000000E+00  0.00000000E+00  0.00000000E+00
  0.00000000E+00  0.00000000E+00  0.00000000E+00
  0.00000000E+00  0.00000000E+00  0.00000000E+00
  0.00000000E+00  0.00000000E+00  0.00000000E+00
  0.00000000E+00  0.00000000E+00  0.00000000E+00
  0.00000000E+00  0.00000000E+00  0.00000000E+00
  0.00000000E+00  0.00000000E+00  0.00000000E+00
  0.00000000E+00  0.00000000E+00  0.00000000E+00
  0.00000000E+00  0.00000000E+00  0.00000000E+00
  0.00000000E+00  0.00000000E+00  0.00000000E+00
  0.00000000E+00  0.00000000E+00  0.00000000E+00
  0.00000000E+00  0.00000000E+00  0.00000000E+00
  0.00000000E+00  0.00000000E+00  0.00000000E+00
  0.00000000E+00  0.00000000E+00  0.00000000E+00
  0.00000000E+00  0.00000000E+00  0.00000000E+00
  0.00000000E+00  0.00000000E+00  0.00000000E+00
  0.00000000E+00  0.00000000E+00  0.00000000E+00
  0.00000000E+00  0.00000000E+00  0.00000000E+00
  0.00000000E+00  0.00000000E+00  0.00000000E+00
  0.00000000E+00  0.00000000E+00  0.00000000E+00
  0.00000000E+00  0.00000000E+00  0.00000000E+00
  0.00000000E+00  0.00000000E+00  0.00000000E+00
  0.00000000E+00  0.00000000E+00  0.00000000E+00
  0.00000000E+00  0.00000000E+00  0.00000000E+00
  0.00000000E+00  0.00000000E+00  0.00000000E+00
  0.00000000E+00  0.00000000E+00  0.00000000E+00
