Na Al S 
 1.0000000000000000
    12.1828203277415312   -0.0000000000000000    0.0000000000000007
    -0.0000000000000005    7.5674693205415418    1.1970639402156102
     0.0000000000000000    0.0113082934473333   13.7304524371335805
 Na  Al  S  
  23   8  24
Direct
  0.9826682686377878  0.0820165811434137  0.8060758187370850
  0.7522404633150187  0.9950796652788084  0.0134970982172931
  0.8070840797108473  0.5346381969101229  0.7597158409044057
  0.7372710363907869  0.9191478516399555  0.5256450028473906
  0.9130063786728398  0.1103439008719889  0.3650815318568519
  0.2372710363907871  0.5808521483600443  0.4743549971526093
  0.8266369426750444  0.5040439343281661  0.2435505521780357
  0.2627289636092129  0.0808521483600444  0.4743549971526093
  0.7477595366849811  0.4950796652788084  0.0134970982172931
  0.4130063786728400  0.3896560991280111  0.6349184681431481
  0.2522404633150188  0.5049203347211915  0.9865029017827069
  0.2477595366849812  0.0049203347211915  0.9865029017827068
  0.7627289636092129  0.4191478516399556  0.5256450028473907
  0.1929159202891526  0.4653618030898770  0.2402841590955944
  0.0173317313622121  0.9179834188565862  0.1939241812629149
  0.5869936213271599  0.6103439008719888  0.3650815318568519
  0.3266369426750444  0.9959560656718337  0.7564494478219642
  0.0869936213271600  0.8896560991280110  0.6349184681431481
  0.1733630573249556  0.4959560656718338  0.7564494478219642
  0.4826682686377879  0.4179834188565862  0.1939241812629149
  0.6929159202891526  0.0346381969101230  0.7597158409044056
  0.5173317313622121  0.5820165811434136  0.8060758187370851
  0.6733630573249555  0.0040439343281662  0.2435505521780357
  0.0067626109413155  0.3258564306991757  0.0733305490984932
  0.0214489848084227  0.3200296651210123  0.5656039150852479
  0.5214489848084227  0.1799703348789876  0.4343960849147521
  0.4785510151915772  0.8200296651210124  0.5656039150852479
  0.5067626109413155  0.1741435693008242  0.9266694509015067
  0.4932373890586845  0.8258564306991758  0.0733305490984932
  0.9785510151915772  0.6799703348789875  0.4343960849147522
  0.9932373890586844  0.6741435693008242  0.9266694509015068
  0.3593825380642173  0.3094020426091930  0.8535399846036711
  0.1667712772377854  0.2027207795102726  0.1230847195988929
  0.3904178558755759  0.3790111336003719  0.3872716908825495
  0.1406174619357827  0.8094020426091929  0.8535399846036711
  0.0029240206290808  0.6182726564142911  0.0967124268129567
  0.6406174619357826  0.6905979573908069  0.1464600153963218
  0.8157815180915335  0.7614231495176184  0.3704838582480150
  0.1095821441244240  0.8790111336003718  0.3872716908825494
  0.3157815180915334  0.7385768504823815  0.6295161417519850
  0.5029240206290808  0.8817273435857088  0.9032875731870432
  0.6667712772377853  0.2972792204897274  0.8769152804011071
  0.8593825380642172  0.1905979573908070  0.1464600153963218
  0.1842184819084665  0.2385768504823815  0.6295161417519850
  0.0325867594767928  0.4102779423369681  0.3965161822424932
  0.6095821441244240  0.6209888663996280  0.6127283091174505
  0.4970759793709191  0.1182726564142911  0.0967124268129567
  0.6842184819084663  0.2614231495176185  0.3704838582480150
  0.8904178558755760  0.1209888663996281  0.6127283091174504
  0.9674132405232071  0.5897220576630318  0.6034838177575067
  0.9970759793709191  0.3817273435857089  0.9032875731870432
  0.8332287227622146  0.7972792204897273  0.8769152804011071
  0.5325867594767928  0.0897220576630318  0.6034838177575067
  0.3332287227622145  0.7027207795102726  0.1230847195988929
  0.4674132405232072  0.9102779423369682  0.3965161822424931
Cartesian
  0.0000000000000000  0.0000000000000000  0.0000000000000000
  0.0000000000000000  0.0000000000000000  0.0000000000000000
  0.0000000000000000  0.0000000000000000  0.0000000000000000
  0.0000000000000000  0.0000000000000000  0.0000000000000000
  0.0000000000000000  0.0000000000000000  0.0000000000000000
  0.0000000000000000  0.0000000000000000  0.0000000000000000
  0.0000000000000000  0.0000000000000000  0.0000000000000000
  0.0000000000000000  0.0000000000000000  0.0000000000000000
  0.0000000000000000  0.0000000000000000  0.0000000000000000
  0.0000000000000000  0.0000000000000000  0.0000000000000000
  0.0000000000000000  0.0000000000000000  0.0000000000000000
  0.0000000000000000  0.0000000000000000  0.0000000000000000
  0.0000000000000000  0.0000000000000000  0.0000000000000000
  0.0000000000000000  0.0000000000000000  0.0000000000000000
  0.0000000000000000  0.0000000000000000  0.0000000000000000
  0.0000000000000000  0.0000000000000000  0.0000000000000000
  0.0000000000000000  0.0000000000000000  0.0000000000000000
  0.0000000000000000  0.0000000000000000  0.0000000000000000
  0.0000000000000000  0.0000000000000000  0.0000000000000000
  0.0000000000000000  0.0000000000000000  0.0000000000000000
  0.0000000000000000  0.0000000000000000  0.0000000000000000
  0.0000000000000000  0.0000000000000000  0.0000000000000000
  0.0000000000000000  0.0000000000000000  0.0000000000000000
  0.0000000000000000  0.0000000000000000  0.0000000000000000
  0.0000000000000000  0.0000000000000000  0.0000000000000000
  0.0000000000000000  0.0000000000000000  0.0000000000000000
  0.0000000000000000  0.0000000000000000  0.0000000000000000
  0.0000000000000000  0.0000000000000000  0.0000000000000000
  0.0000000000000000  0.0000000000000000  0.0000000000000000
  0.0000000000000000  0.0000000000000000  0.0000000000000000
  0.0000000000000000  0.0000000000000000  0.0000000000000000
  0.0000000000000000  0.0000000000000000  0.0000000000000000
  0.0000000000000000  0.0000000000000000  0.0000000000000000
  0.0000000000000000  0.0000000000000000  0.0000000000000000
  0.0000000000000000  0.0000000000000000  0.0000000000000000
  0.0000000000000000  0.0000000000000000  0.0000000000000000
  0.0000000000000000  0.0000000000000000  0.0000000000000000
  0.0000000000000000  0.0000000000000000  0.0000000000000000
  0.0000000000000000  0.0000000000000000  0.0000000000000000
  0.0000000000000000  0.0000000000000000  0.0000000000000000
  0.0000000000000000  0.0000000000000000  0.0000000000000000
  0.0000000000000000  0.0000000000000000  0.0000000000000000
  0.0000000000000000  0.0000000000000000  0.0000000000000000
  0.0000000000000000  0.0000000000000000  0.0000000000000000
  0.0000000000000000  0.0000000000000000  0.0000000000000000
  0.0000000000000000  0.0000000000000000  0.0000000000000000
  0.0000000000000000  0.0000000000000000  0.0000000000000000
  0.0000000000000000  0.0000000000000000  0.0000000000000000
  0.0000000000000000  0.0000000000000000  0.0000000000000000
  0.0000000000000000  0.0000000000000000  0.0000000000000000
  0.0000000000000000  0.0000000000000000  0.0000000000000000
  0.0000000000000000  0.0000000000000000  0.0000000000000000
  0.0000000000000000  0.0000000000000000  0.0000000000000000
  0.0000000000000000  0.0000000000000000  0.0000000000000000
  0.0000000000000000  0.0000000000000000  0.0000000000000000
