Na Al S 
 1.0000000000000000
    12.1828203277415312    0.0000000000000000    0.0000000000000007
    -0.0000000000000005    7.5674693205415418    1.1970639402156102
     0.0000000000000000    0.0113082934473333   13.7304524371335805
 Na  Al  S  
  23   8  24
Direct
  0.9740542818190076  0.0860464461149900  0.8071508003986857
  0.7484196388402523  0.0157905480775631  0.0014607850433484
  0.8103901104051354  0.5204353315462011  0.7523519700952822
  0.7414287779608048  0.9704087070636732  0.5038636683610445
  0.9463250920938342  0.0844526720071154  0.3345977459707242
  0.2524507385588119  0.5254442108740784  0.4870656142528589
  0.8187761802045789  0.4959126575840653  0.2300709708520683
  0.2524884196700161  0.0340109584208758  0.4821381781495119
  0.4853803083374774  0.4428023679344760  0.7123768685178332
  0.2543982251597764  0.5133566151600206  0.9858193485526937
  0.2400058771880293  0.0032400552136274  0.9851772275945785
  0.7520529426908735  0.4546076990081137  0.5186725512080334
  0.1773186840792368  0.4854763560039714  0.2432420748940898
  0.0319352001907673  0.9061286211705877  0.1735726384871235
  0.5949935516880227  0.6288719271140070  0.3446956203100246
  0.3237015294899832 -0.0022744224736967  0.7488343290934754
  0.0720638577483450  0.8808148028234444  0.6541497423235084
  0.3128805501249414 -0.0000679958569025  0.2454732467147833
  0.1781476419744479  0.4810375005195757  0.7503711141340859
  0.4734336749320524  0.4243590270206611  0.1877184808074329
  0.6737195616395073 -0.0038070102899885  0.7441515078840640
  0.6714223788062641  0.5740415832228747  0.9619278982414361
  0.6742057876227099  0.0218851284857978  0.2395982601209936
  0.0008436849832758  0.3238387721061265  0.0680693519869078
  0.0030378305294258  0.3166262627557007  0.5663363599639221
  0.5000978577301074  0.1815185560890994  0.4259816339240059
  0.4855709557075589  0.8366757017916484  0.5713542824503688
  0.4980063897682360  0.1673451955905853  0.9234995560813456
  0.4882243446494827  0.8373374152650774  0.0744625602801842
  0.9826557603055232  0.6662473111579928  0.4241339207635910
  0.9865352879054420  0.6670992226302777  0.9233083307166327
  0.3422980438656004  0.2870135518030427  0.8609313753861222
  0.1622012237069893  0.2100586951171100  0.1204187140566818
  0.3523663623684756  0.3222980424920285  0.3579409007426204
  0.1367063231523866  0.8015404404459699  0.8535945112574478
 -0.0023822872410248  0.6123020055777488  0.0923822079296429
  0.6373744588347677  0.6979524112793541  0.1415378920152058
  0.8217242446910096  0.7707247364388529  0.3635134336292589
  0.1273344639154448  0.8282936562852358  0.3652915634388597
  0.3266699982568844  0.7208574996764188  0.6298206309157314
  0.4974807169727348  0.8732290539852857  0.9057521866497084
  0.6511841735547753  0.2902364316630159  0.8567555625916101
  0.8609925679709168  0.1722952083888629  0.1432461025613462
  0.1621780341770784  0.2132783855964407  0.6273624792526875
  0.0051202035114542  0.3833182109216323  0.3966263419213338
  0.6383609496683830  0.6921975091514713  0.6256242681274494
  0.4997181655380843  0.1292279268708587  0.0935166020152862
  0.6617576008873522  0.2840495338369742  0.3668459717850736
  0.8589695857778611  0.1578405544751621  0.6277633809014990
  0.9781733838998583  0.6009050102424278  0.5938099006848779
 -0.0090312640301861  0.3781365482337768  0.8986847003320029
  0.8313974116819614  0.8001188737936440  0.8693604088349492
  0.4976951544027897  0.1273526276633880  0.5954273773694594
  0.3287778173548395  0.7180885497027131  0.1274835702922258
  0.4802080075926534  0.8939426469481339  0.4011861809169718
Cartesian
  0.0000000000000000  0.0000000000000000  0.0000000000000000
  0.0000000000000000  0.0000000000000000  0.0000000000000000
  0.0000000000000000  0.0000000000000000  0.0000000000000000
  0.0000000000000000  0.0000000000000000  0.0000000000000000
  0.0000000000000000  0.0000000000000000  0.0000000000000000
  0.0000000000000000  0.0000000000000000  0.0000000000000000
  0.0000000000000000  0.0000000000000000  0.0000000000000000
  0.0000000000000000  0.0000000000000000  0.0000000000000000
  0.0000000000000000  0.0000000000000000  0.0000000000000000
  0.0000000000000000  0.0000000000000000  0.0000000000000000
  0.0000000000000000  0.0000000000000000  0.0000000000000000
  0.0000000000000000  0.0000000000000000  0.0000000000000000
  0.0000000000000000  0.0000000000000000  0.0000000000000000
  0.0000000000000000  0.0000000000000000  0.0000000000000000
  0.0000000000000000  0.0000000000000000  0.0000000000000000
  0.0000000000000000  0.0000000000000000  0.0000000000000000
  0.0000000000000000  0.0000000000000000  0.0000000000000000
  0.0000000000000000  0.0000000000000000  0.0000000000000000
  0.0000000000000000  0.0000000000000000  0.0000000000000000
  0.0000000000000000  0.0000000000000000  0.0000000000000000
  0.0000000000000000  0.0000000000000000  0.0000000000000000
  0.0000000000000000  0.0000000000000000  0.0000000000000000
  0.0000000000000000  0.0000000000000000  0.0000000000000000
  0.0000000000000000  0.0000000000000000  0.0000000000000000
  0.0000000000000000  0.0000000000000000  0.0000000000000000
  0.0000000000000000  0.0000000000000000  0.0000000000000000
  0.0000000000000000  0.0000000000000000  0.0000000000000000
  0.0000000000000000  0.0000000000000000  0.0000000000000000
  0.0000000000000000  0.0000000000000000  0.0000000000000000
  0.0000000000000000  0.0000000000000000  0.0000000000000000
  0.0000000000000000  0.0000000000000000  0.0000000000000000
  0.0000000000000000  0.0000000000000000  0.0000000000000000
  0.0000000000000000  0.0000000000000000  0.0000000000000000
  0.0000000000000000  0.0000000000000000  0.0000000000000000
  0.0000000000000000  0.0000000000000000  0.0000000000000000
  0.0000000000000000  0.0000000000000000  0.0000000000000000
  0.0000000000000000  0.0000000000000000  0.0000000000000000
  0.0000000000000000  0.0000000000000000  0.0000000000000000
  0.0000000000000000  0.0000000000000000  0.0000000000000000
  0.0000000000000000  0.0000000000000000  0.0000000000000000
  0.0000000000000000  0.0000000000000000  0.0000000000000000
  0.0000000000000000  0.0000000000000000  0.0000000000000000
  0.0000000000000000  0.0000000000000000  0.0000000000000000
  0.0000000000000000  0.0000000000000000  0.0000000000000000
  0.0000000000000000  0.0000000000000000  0.0000000000000000
  0.0000000000000000  0.0000000000000000  0.0000000000000000
  0.0000000000000000  0.0000000000000000  0.0000000000000000
  0.0000000000000000  0.0000000000000000  0.0000000000000000
  0.0000000000000000  0.0000000000000000  0.0000000000000000
  0.0000000000000000  0.0000000000000000  0.0000000000000000
  0.0000000000000000  0.0000000000000000  0.0000000000000000
  0.0000000000000000  0.0000000000000000  0.0000000000000000
  0.0000000000000000  0.0000000000000000  0.0000000000000000
  0.0000000000000000  0.0000000000000000  0.0000000000000000
  0.0000000000000000  0.0000000000000000  0.0000000000000000
