JVASP-12818_Na5InS4 NEB image 04
  1.0
      6.8330688911791304     -0.0000000000000000     -0.1272470229470229
     -0.0000000000000010     17.6718505513838551      0.0000000000000010
     -0.0048172062806638      0.0000000000000000      7.8804846921668430
  Na  In  S
  19  4  16
Direct
  0.4393783782943906  0.3366938731917108  0.7811198316846492
  0.3435793262832041  0.0100816195751323  0.3350465132934302
  0.3435793262832041  0.2399183804248677  0.3350465132934302
  0.6564206737167959  0.4899183804248676  0.6649534867065697
  0.9749322541146215  0.1250000000000000  0.5287792724042972
  0.0250677458853787  0.3750000000000000  0.4712207275957027
  0.6691427694168121  0.1250000000000000  0.1607969958263111
  0.0000000000000000  0.0000000000000000  0.0000000000000000
  0.0000000000000000  0.2500000000000000  0.0000000000000000
  0.6564206737167959  0.7600816195751323  0.6649534867065697
  0.3435793262832041  0.5100816195751323  0.3350465132934302
  0.3435793262832041  0.7399183804248677  0.3350465132934302
  0.6564206737167959  0.9899183804248677  0.6649534867065697
  0.9749322541146215  0.6250000000000000  0.5287792724042972
  0.0250677458853787  0.8750000000000000  0.4712207275957027
  0.6691427694168121  0.6250000000000000  0.1607969958263111
  0.3308572305831879  0.8750000000000000  0.8392030041736889
  0.0000000000000000  0.5000000000000000  0.0000000000000000
  0.0000000000000000  0.7500000000000000  0.0000000000000000
  0.6385400052884252  0.3750000000000000  0.1764359578024573
  0.3614599947115747  0.1250000000000000  0.8235640421975426
  0.6385400052884252  0.8750000000000000  0.1764359578024573
  0.3614599947115747  0.6250000000000000  0.8235640421975426
  0.7605656723461858  0.3750000000000000  0.8800385414340772
  0.2394343276538143  0.1250000000000000  0.1199614585659227
  0.2331814499801963  0.0095027621715325  0.6716689785082640
  0.7668185500198036  0.2595027621715325  0.3283310214917362
  0.7668185500198036  0.4904972378284675  0.3283310214917362
  0.2331814499801963  0.2404972378284675  0.6716689785082640
  0.7285168624784741  0.1250000000000000  0.8214930948932282
  0.2714831375215258  0.3750000000000000  0.1785069051067718
  0.7605656723461858  0.8750000000000000  0.8800385414340772
  0.2394343276538143  0.6250000000000000  0.1199614585659227
  0.2331814499801963  0.5095027621715325  0.6716689785082640
  0.7668185500198036  0.7595027621715325  0.3283310214917362
  0.7668185500198036  0.9904972378284675  0.3283310214917362
  0.2331814499801963  0.7404972378284675  0.6716689785082640
  0.7285168624784741  0.6250000000000000  0.8214930948932282
  0.2714831375215258  0.8750000000000000  0.1785069051067718
