Na In S                                 
   1.0000000000000000     
     6.8330688911791304    0.0000000000000000   -0.1272470229470229
    -0.0000000000000005    8.8359252756919275    0.0000000000000005
    -0.0048172062806638    0.0000000000000000    7.8804846921668430
   Na   In   S 
     9     2     8
Direct
  0.6362753732120510  0.5564687093851575  0.6776641179951000
  0.2909144741476481  0.0095901101482170  0.2574316338157487
  0.3626075127752557  0.4508670251702895  0.3214313326602181
  0.6396766989815035  0.9787001408736486  0.6774052224481295
  0.7608129208391006  0.2294844569413996  0.4949926585388695
  0.0584140807151101  0.7577202700496883  0.4835833996941759
  0.7869912725217176  0.1377377893776668  0.0827713760477451
  0.2075501957127130  0.8551189901937164  0.9160398185643643
  0.9944917641975906  0.4988173654674526  0.9999940797192224
  0.6669387524118022  0.7480471275712119  0.1901191724136453
  0.3283619330741132  0.2558200833765554  0.8126409985679430
  0.7915361724404946  0.7677203092745515  0.8978668895384274
  0.2024434106784909  0.2400608092401697  0.0986850700560211
  0.2320079360159681  0.0214051652407079  0.6512391502324775
  0.7798986450354093  0.5224263210087372  0.3396099719636254
  0.7698530257426057  0.9775740866539735  0.3552538119771143
  0.2156592983645567  0.4847238440561057  0.6528486764515975
  0.6928422405374022  0.2696451065501719  0.8226811910498739
  0.3016461422439818  0.7338541194513013  0.1976493597169338

             NaN             NaN             NaN
             NaN             NaN             NaN
             NaN             NaN             NaN
             NaN             NaN             NaN
             NaN             NaN             NaN
             NaN             NaN             NaN
             NaN             NaN             NaN
             NaN             NaN             NaN
             NaN             NaN             NaN
             NaN             NaN             NaN
             NaN             NaN             NaN
             NaN             NaN             NaN
             NaN             NaN             NaN
             NaN             NaN             NaN
             NaN             NaN             NaN
             NaN             NaN             NaN
             NaN             NaN             NaN
             NaN             NaN             NaN
             NaN             NaN             NaN
