Na5InS4 bottleneck NEB image 02         
   1.0000000000000000     
     6.8330688911791304    0.0000000000000000   -0.1272470229470229
    -0.0000000000000005    8.8359252756919275    0.0000000000000005
    -0.0048172062806638    0.0000000000000000    7.8804846921668430
   Na   In   S 
     9     2     8
Direct
  0.6377056842791760  0.5520150684669076  0.6751049406688026
  0.3560638525439970  0.1145823425469104  0.3192896855401344
  0.4252571491065709  0.3491838405707384  0.3868625375490637
  0.7121273395570711  0.0272669494525317  0.6481621349652755
  0.9681841300234595  0.1586249283478978  0.5031865042495127
  0.9727332533454032  0.8448876563674830  0.4234506600945807
  0.7269136300320866  0.0399382145768570  0.0213559499112606
  0.1451070224362638  0.9060890950221960  0.9520453907496247
  0.9950546587828484  0.4985829293232555  0.0001945460308619
  0.6673836963847393  0.7472261391698680  0.1907176537694966
  0.3306219038035536  0.2556454758576976  0.8107936401298161
  0.7916911610007844  0.7675035541266908  0.8977387365305418
  0.2048292267970524  0.2346891702156455  0.1026009743066538
  0.2334904398878663  0.0220133879499116  0.6496898294973406
  0.7793861196040552  0.5152068701055867  0.3438485089924228
  0.7695822516973649  0.9772703208682856  0.3555369459687086
  0.2165231629065545  0.4843429617029997  0.6524433808240104
  0.6965597222482032  0.2675949127269988  0.8019323989299352
  0.3020697303063216  0.7333035347714727  0.1980362786332890

             NaN             NaN             NaN
             NaN             NaN             NaN
             NaN             NaN             NaN
             NaN             NaN             NaN
             NaN             NaN             NaN
             NaN             NaN             NaN
             NaN             NaN             NaN
             NaN             NaN             NaN
             NaN             NaN             NaN
             NaN             NaN             NaN
             NaN             NaN             NaN
             NaN             NaN             NaN
             NaN             NaN             NaN
             NaN             NaN             NaN
             NaN             NaN             NaN
             NaN             NaN             NaN
             NaN             NaN             NaN
             NaN             NaN             NaN
             NaN             NaN             NaN
