Na5InS4 bottleneck NEB image 02
  1.0
      6.8330688911791304      0.0000000000000000     -0.1272470229470229
     -0.0000000000000005      8.8359252756919275      0.0000000000000005
     -0.0048172062806638      0.0000000000000000      7.8804846921668430
  Na  In  S
  9  2  8
Direct
  0.6377056842791746  0.5520150684669077  0.6751049406688029
  0.3560638525439946  0.1145823425469109  0.3192896855401324
  0.4252571491065742  0.3491838405707416  0.3868625375490654
  0.7121273395570714  0.0272669494525317  0.6481621349652721
  0.9681841300234605  0.1586249283479001  0.5031865042495096
  0.9727332533454019  0.8448876563674823  0.4234506600945828
  0.7269136300320861  0.0399382145768589  0.0213559499112616
  0.1451070224362632  0.9060890950221938  0.9520453907496236
  0.9950546587828484  0.4985829293232521  0.0001945460308624
  0.6673836963847383  0.7472261391698685  0.1907176537694969
  0.3306219038035509  0.2556454758577011  0.8107936401298148
  0.7916911610007825  0.7675035541266922  0.8977387365305391
  0.2048292267970498  0.2346891702156449  0.1026009743066525
  0.2334904398878628  0.0220133879499124  0.6496898294973381
  0.7793861196040538  0.5152068701055845  0.3438485089924257
  0.7695822516973657  0.9772703208682885  0.3555369459687069
  0.2165231629065535  0.4843429617030021  0.6524433808240102
  0.6965597222482064  0.2675949127269988  0.8019323989299322
  0.3020697303063205  0.7333035347714753  0.1980362786332855
