Na In S 
 1.0000000000000000
     6.8330688911791304    0.0000000000000000   -0.1272470229470229
    -0.0000000000000005    8.8359252756919275    0.0000000000000005
    -0.0048172062806638    0.0000000000000000    7.8804846921668430
 Na  In  S  
   9   2   8
Direct
  0.6362753732120493  0.5564687093851591  0.6776641179950987
  0.2909144741476481  0.0095901101482178  0.2574316338157498
  0.3626075127752573  0.4508670251702913  0.3214313326602158
  0.6396766989815049  0.9787001408736480  0.6774052224481264
  0.7608129208391000  0.2294844569413995  0.4949926585388718
  0.0584140807151134  0.7577202700496911  0.4835833996941775
  0.7869912725217187  0.1377377893776690  0.0827713760477421
  0.2075501957127157  0.8551189901937142  0.9160398185643618
 -0.0055082358024073  0.4988173654674498 -0.0000059202807780
  0.6669387524118011  0.7480471275712137  0.1901191724136449
  0.3283619330741127  0.2558200833765537  0.8126409985679426
  0.7915361724404965  0.7677203092745497  0.8978668895384267
  0.2024434106784890  0.2400608092401664  0.0986850700560204
  0.2320079360159658  0.0214051652407083  0.6512391502324745
  0.7798986450354065  0.5224263210087404  0.3396099719636265
  0.7698530257426066  0.9775740866539748  0.3552538119771123
  0.2156592983645562  0.4847238440561045  0.6528486764515981
  0.6928422405373994  0.2696451065501684  0.8226811910498727
  0.3016461422439811  0.7338541194513019  0.1976493597169371
Cartesian
  0.0000000000000000  0.0000000000000000  0.0000000000000000
  0.0000000000000000  0.0000000000000000  0.0000000000000000
  0.0000000000000000  0.0000000000000000  0.0000000000000000
  0.0000000000000000  0.0000000000000000  0.0000000000000000
  0.0000000000000000  0.0000000000000000  0.0000000000000000
  0.0000000000000000  0.0000000000000000  0.0000000000000000
  0.0000000000000000  0.0000000000000000  0.0000000000000000
  0.0000000000000000  0.0000000000000000  0.0000000000000000
  0.0000000000000000  0.0000000000000000  0.0000000000000000
  0.0000000000000000  0.0000000000000000  0.0000000000000000
  0.0000000000000000  0.0000000000000000  0.0000000000000000
  0.0000000000000000  0.0000000000000000  0.0000000000000000
  0.0000000000000000  0.0000000000000000  0.0000000000000000
  0.0000000000000000  0.0000000000000000  0.0000000000000000
  0.0000000000000000  0.0000000000000000  0.0000000000000000
  0.0000000000000000  0.0000000000000000  0.0000000000000000
  0.0000000000000000  0.0000000000000000  0.0000000000000000
  0.0000000000000000  0.0000000000000000  0.0000000000000000
  0.0000000000000000  0.0000000000000000  0.0000000000000000
