mp-560538_Na3AlS3 NEB_v2 image 03       
   1.0000000000000000     
    12.1828203277415312    0.0000000000000000    0.0000000000000007
    -0.0000000000000005    7.5674693205415418    1.1970639402156102
     0.0000000000000000    0.0113082934473333   13.7304524371335805
   Na   Al   S 
    23     8    24
Direct
  0.0031827674138114  0.0193436732821439  0.7627203777277174
  0.7611594911567039  0.9891849581183294  0.0041596423941002
  0.8232344226030790  0.4976351933379206  0.7519967069662314
  0.7534186917922767  0.9842960324557453  0.5158514900806495
  0.9535172388430766  0.0994884237644840  0.3345127615151355
  0.2395385225487203  0.5522657629467247  0.4805991942602290
  0.8224804917334367  0.5074058035021096  0.2513632295448076
  0.2389805142122015  0.0283820474676375  0.4962268493604043
  0.7503183141875240  0.4856044379227455  0.0084799796903710
  0.3861310410668182  0.3663044207768351  0.6570250467378855
  0.2566645704038777  0.5042922556601965  0.9928932729487343
  0.2517797990276449  0.0115202326117796  0.9930042086070898
  0.7460129176062154  0.4828376275596682  0.5134081658804988
  0.1808970224610604  0.4870029337008859  0.2469910536565436
  0.0318737077613847  0.9083626936577929  0.1736276422742762
  0.5447898956379120  0.6006932021557105  0.3319419803556798
  0.3136452036885586  0.9730829981943785  0.7574494754411063
  0.3187168136246541  0.9890778206958402  0.2506248094784738
  0.1657139178787972  0.5203084924003178  0.7525562737504075
  0.4738136845030709  0.4026033560485018  0.1805681856014516
  0.6874393074347367  0.0085086946397439  0.7525426041065799
  0.5222365671209630  0.5786198681271060  0.8058571597347282
  0.6782027250188705  0.0051199841129161  0.2487055442319601
  0.0057751317286474  0.3212447499384723  0.0738177681013497
  0.0090969810688719  0.3432592879499694  0.5749826847555610
  0.5076195467311067  0.1776218016070104  0.4297820015340577
  0.4970178346488936  0.8306385551065389  0.5736084717929231
  0.5059990038368554  0.1654506228433590  0.9249834297542705
  0.4959070706185216  0.8221879634611469  0.0732270302352234
  0.9915207508697392  0.6832631240081284  0.4294637566500654
  0.9961891299705457  0.6623010800325773  0.9301444480009238
  0.3552766576964359  0.3026669843993801  0.8597651144313829
  0.1665078307377215  0.2097172950972848  0.1291482118072622
  0.3608296984401349  0.3309297578545909  0.3684386747255886
  0.1513212103681028  0.7935514561350843  0.8733472865468244
  0.9934160500248908  0.6085619342427080  0.1003094056845200
  0.6444696160297880  0.6845973108667778  0.1415017983887736
  0.8297896321369578  0.7858569115397245  0.3729314487694495
  0.1342425455996548  0.8393982195975198  0.3593984386604276
  0.3378372653743469  0.7169343915781283  0.6311463374980519
  0.4992955156524417  0.8736819484849718  0.9038826271774596
  0.6643099638451488  0.2861842660864724  0.8724822695096535
  0.8594338293190731  0.1782462033316747  0.1441632476830677
  0.1675834994703038  0.2292256935725163  0.6374789101824732
  0.0129746079092783  0.3959791601596194  0.4044618682498466
  0.6479299481649647  0.6966326412389989  0.6378640344070519
  0.5007448219408843  0.1120720287103154  0.0954181396606302
  0.6658931486656812  0.2880430652359038  0.3677064037221029
  0.8561493353016658  0.2077965286572123  0.6343988115176700
  0.9999247263436430  0.6333578720201203  0.5976190742940020
  0.9994146984368442  0.3725100453736729  0.9054450320862202
  0.8413244864057390  0.7845715618470805  0.8684498671888363
  0.5131574814950426  0.1186107130424574  0.5985699872735921
  0.3386205466700218  0.7039922246654982  0.1330906526464588
  0.4909837912522832  0.8916094444429348  0.4036014393978604

             NaN             NaN             NaN
             NaN             NaN             NaN
             NaN             NaN             NaN
             NaN             NaN             NaN
             NaN             NaN             NaN
             NaN             NaN             NaN
             NaN             NaN             NaN
             NaN             NaN             NaN
             NaN             NaN             NaN
             NaN             NaN             NaN
             NaN             NaN             NaN
             NaN             NaN             NaN
             NaN             NaN             NaN
             NaN             NaN             NaN
             NaN             NaN             NaN
             NaN             NaN             NaN
             NaN             NaN             NaN
             NaN             NaN             NaN
             NaN             NaN             NaN
             NaN             NaN             NaN
             NaN             NaN             NaN
             NaN             NaN             NaN
             NaN             NaN             NaN
             NaN             NaN             NaN
             NaN             NaN             NaN
             NaN             NaN             NaN
             NaN             NaN             NaN
             NaN             NaN             NaN
             NaN             NaN             NaN
             NaN             NaN             NaN
             NaN             NaN             NaN
             NaN             NaN             NaN
             NaN             NaN             NaN
             NaN             NaN             NaN
             NaN             NaN             NaN
             NaN             NaN             NaN
             NaN             NaN             NaN
             NaN             NaN             NaN
             NaN             NaN             NaN
             NaN             NaN             NaN
             NaN             NaN             NaN
             NaN             NaN             NaN
             NaN             NaN             NaN
             NaN             NaN             NaN
             NaN             NaN             NaN
             NaN             NaN             NaN
             NaN             NaN             NaN
             NaN             NaN             NaN
             NaN             NaN             NaN
             NaN             NaN             NaN
             NaN             NaN             NaN
             NaN             NaN             NaN
             NaN             NaN             NaN
             NaN             NaN             NaN
             NaN             NaN             NaN
