mp-560538_Na3AlS3 NEB_v2 image 03
  1.0
     12.1828203277415312      0.0000000000000000      0.0000000000000007
     -0.0000000000000005      7.5674693205415418      1.1970639402156102
      0.0000000000000000      0.0113082934473333     13.7304524371335805
  Na  Al  S
  23  8  24
Direct
  0.0031827674138093  0.0193436732821454  0.7627203777277199
  0.7611594911567044  0.9891849581183293  0.0041596423941019
  0.8232344226030774  0.4976351933379172  0.7519967069662310
  0.7534186917922785  0.9842960324557443  0.5158514900806485
  0.9535172388430788  0.0994884237644829  0.3345127615151361
  0.2395385225487218  0.5522657629467235  0.4805991942602311
  0.8224804917334391  0.5074058035021127  0.2513632295448045
  0.2389805142122018  0.0283820474676410  0.4962268493604050
  0.7503183141875254  0.4856044379227437  0.0084799796903686
  0.3861310410668147  0.3663044207768350  0.6570250467378839
  0.2566645704038788  0.5042922556601950  0.9928932729487350
  0.2517797990276418  0.0115202326117786  0.9930042086070919
  0.7460129176062171  0.4828376275596662  0.5134081658804998
  0.1808970224610613  0.4870029337008849  0.2469910536565453
  0.0318737077613818  0.9083626936577954  0.1736276422742755
  0.5447898956379142  0.6006932021557140  0.3319419803556780
  0.3136452036885568  0.9730829981943814  0.7574494754411079
  0.3187168136246560  0.9890778206958436  0.2506248094784752
  0.1657139178787990  0.5203084924003162  0.7525562737504092
  0.4738136845030745  0.4026033560485003  0.1805681856014496
  0.6874393074347391  0.0085086946397463  0.7525426041065832
  0.5222365671209628  0.5786198681271029  0.8058571597347306
  0.6782027250188689  0.0051199841129139  0.2487055442319605
  0.0057751317286503  0.3212447499384718  0.0738177681013473
  0.0090969810688749  0.3432592879499707  0.5749826847555635
  0.5076195467311055  0.1776218016070137  0.4297820015340557
  0.4970178346488938  0.8306385551065372  0.5736084717929242
  0.5059990038368551  0.1654506228433611  0.9249834297542679
  0.4959070706185182  0.8221879634611480  0.0732270302352263
  0.9915207508697426  0.6832631240081258  0.4294637566500689
  0.9961891299705472  0.6623010800325737  0.9301444480009233
  0.3552766576964394  0.3026669843993823  0.8597651144313829
  0.1665078307377216  0.2097172950972830  0.1291482118072612
  0.3608296984401379  0.3309297578545942  0.3684386747255892
  0.1513212103681048  0.7935514561350838  0.8733472865468259
  0.9934160500248924  0.6085619342427061  0.1003094056845196
  0.6444696160297859  0.6845973108667799  0.1415017983887740
  0.8297896321369570  0.7858569115397257  0.3729314487694529
  0.1342425455996577  0.8393982195975205  0.3593984386604289
  0.3378372653743459  0.7169343915781270  0.6311463374980512
  0.4992955156524408  0.8736819484849701  0.9038826271774580
  0.6643099638451460  0.2861842660864701  0.8724822695096519
  0.8594338293190747  0.1782462033316729  0.1441632476830706
  0.1675834994703058  0.2292256935725164  0.6374789101824735
  0.0129746079092792  0.3959791601596161  0.4044618682498479
  0.6479299481649674  0.6966326412389994  0.6378640344070490
  0.5007448219408870  0.1120720287103161  0.0954181396606306
  0.6658931486656811  0.2880430652359067  0.3677064037221045
  0.8561493353016639  0.2077965286572137  0.6343988115176717
  0.9999247263436452  0.6333578720201188  0.5976190742939985
  0.9994146984368414  0.3725100453736737  0.9054450320862175
  0.8413244864057378  0.7845715618470839  0.8684498671888383
  0.5131574814950435  0.1186107130424570  0.5985699872735897
  0.3386205466700196  0.7039922246655010  0.1330906526464616
  0.4909837912522848  0.8916094444429346  0.4036014393978591
