Na4 Zn2 S4
1.0
   5.3218443884106863    0.0000000000000000   -2.4240962480360628
  -1.3146844171604744    5.5370887953571195   -2.8862512253046329
   0.0000000000000000    0.0000000000000000    7.0538209500000004
Na Zn S
4 2 4
direct
   0.1417664400000000    0.4893894200000000    0.2835318700000000 Na
   0.8582335600000000    0.5106105800000000    0.7164681300000000 Na
   0.3582335600000000    0.2058575400000000    0.7164681300000000 Na
   0.6417664400000000    0.7941424600000000    0.2835318700000000 Na
   0.2500000000000000    0.0000000000000000    0.0000000000000000 Zn
   0.7500000000000000    0.0000000000000000    0.0000000000000000 Zn
   0.6116662100000000    0.3256744300000000    0.2233334100000000 S
   0.3883337900000000    0.6743255700000000    0.7766665900000000 S
   0.8883337900000000    0.1023420100000000    0.7766665900000000 S
   0.1116662100000000    0.8976579900000000    0.2233334100000000 S
