Li84 La36 Zr24 O144
1.0
10.614184 0.000000 -3.540074
-5.515562 9.068852 -3.540263
0.000000 0.000000 67.135098
Li La Zr O
84 36 24 144
direct
0.609953 0.616177 0.057031 Li
0.632337 0.377873 0.126425 Li
0.120610 0.284515 0.085086 Li
0.382301 0.627767 0.043099 Li
0.227548 0.889356 0.166331 Li
0.787146 0.114291 0.001069 Li
0.132440 0.877821 0.126437 Li
0.789034 0.616204 0.001766 Li
0.544260 0.931996 0.125897 Li
0.904644 0.733858 0.086570 Li
0.238206 0.400123 0.003216 Li
0.436550 0.039662 0.042569 Li
0.882224 0.127776 0.043084 Li
0.895740 0.889395 0.029503 Li
0.725301 0.222972 0.056686 Li
0.618725 0.282715 0.084425 Li
0.324784 0.573503 0.102697 Li
0.970323 0.212612 0.150152 Li
0.286957 0.771719 0.029146 Li
0.189843 0.292762 0.126967 Li
0.120500 0.105156 0.140331 Li
0.276373 0.782517 0.112480 Li
0.393840 0.723052 0.082980 Li
0.717186 0.466005 0.066813 Li
0.077850 0.820234 0.019380 Li
0.727347 0.220969 0.140008 Li
0.797443 0.685298 0.043637 Li
0.393746 0.391239 0.112821 Li
0.609953 0.616177 0.223698 Li
0.632337 0.377873 0.293091 Li
0.120610 0.284515 0.251752 Li
0.382301 0.627767 0.209766 Li
0.227548 0.889356 0.332997 Li
0.787146 0.114291 0.167735 Li
0.132440 0.877821 0.293104 Li
0.789034 0.616204 0.168433 Li
0.544260 0.931996 0.292564 Li
0.904644 0.733858 0.253236 Li
0.238206 0.400123 0.169883 Li
0.436550 0.039662 0.209236 Li
0.882224 0.127776 0.209751 Li
0.895740 0.889395 0.196169 Li
0.725301 0.222972 0.223353 Li
0.618725 0.282715 0.251092 Li
0.324784 0.573503 0.269364 Li
0.970323 0.212612 0.316819 Li
0.286957 0.771719 0.195813 Li
0.189843 0.292762 0.293634 Li
0.120500 0.105156 0.306998 Li
0.276373 0.782517 0.279147 Li
0.393840 0.723052 0.249646 Li
0.717186 0.466005 0.233479 Li
0.077850 0.820234 0.186047 Li
0.727347 0.220969 0.306675 Li
0.797443 0.685298 0.210304 Li
0.393746 0.391239 0.279488 Li
0.609953 0.616177 0.390364 Li
0.632337 0.377873 0.459758 Li
0.120610 0.284515 0.418419 Li
0.382301 0.627767 0.376432 Li
0.227548 0.889356 0.499664 Li
0.787146 0.114291 0.334402 Li
0.132440 0.877821 0.459771 Li
0.789034 0.616204 0.335099 Li
0.544260 0.931996 0.459230 Li
0.904644 0.733858 0.419903 Li
0.238206 0.400123 0.336549 Li
0.436550 0.039662 0.375902 Li
0.882224 0.127776 0.376418 Li
0.895740 0.889395 0.362836 Li
0.725301 0.222972 0.390019 Li
0.618725 0.282715 0.417758 Li
0.324784 0.573503 0.436031 Li
0.970323 0.212612 0.483485 Li
0.286957 0.771719 0.362480 Li
0.189843 0.292762 0.460301 Li
0.120500 0.105156 0.473664 Li
0.276373 0.782517 0.445814 Li
0.393840 0.723052 0.416313 Li
0.717186 0.466005 0.400146 Li
0.077850 0.820234 0.352714 Li
0.727347 0.220969 0.473341 Li
0.797443 0.685298 0.376970 Li
0.393746 0.391239 0.446155 Li
0.757207 0.882973 0.106452 La
0.257222 0.622537 0.146386 La
0.882044 0.627592 0.126427 La
0.631769 0.752780 0.147181 La
0.632425 0.877986 0.043087 La
0.882732 0.252791 0.105673 La
0.257240 0.127296 0.063846 La
0.757243 0.378263 0.022336 La
0.132009 0.377565 0.043091 La
0.387422 0.252760 0.023122 La
0.382523 0.128006 0.126429 La
0.127054 0.752791 0.063066 La
0.757207 0.882973 0.273119 La
0.257222 0.622537 0.313052 La
0.882044 0.627592 0.293093 La
0.631769 0.752780 0.313848 La
0.632425 0.877986 0.209754 La
0.882732 0.252791 0.272339 La
0.257240 0.127296 0.230512 La
0.757243 0.378263 0.189003 La
0.132009 0.377565 0.209758 La
0.387422 0.252760 0.189789 La
0.382523 0.128006 0.293095 La
0.127054 0.752791 0.229733 La
0.757207 0.882973 0.439786 La
0.257222 0.622537 0.479719 La
0.882044 0.627592 0.459760 La
0.631769 0.752780 0.480514 La
0.632425 0.877986 0.376420 La
0.882732 0.252791 0.439006 La
0.257240 0.127296 0.397179 La
0.757243 0.378263 0.355669 La
0.132009 0.377565 0.376424 La
0.387422 0.252760 0.356455 La
0.382523 0.128006 0.459762 La
0.127054 0.752791 0.396399 La
0.007712 0.003151 0.001579 Zr
0.507776 0.502386 0.001439 Zr
0.506781 0.003252 0.084747 Zr
0.006675 0.502306 0.084602 Zr
0.507603 0.503236 0.084912 Zr
0.507765 0.002337 0.001413 Zr
0.006793 0.502249 0.001269 Zr
0.006822 0.003267 0.084767 Zr
0.007712 0.003151 0.168246 Zr
0.507776 0.502386 0.168106 Zr
0.506781 0.003252 0.251413 Zr
0.006675 0.502306 0.251268 Zr
0.507603 0.503236 0.251579 Zr
0.507765 0.002337 0.168079 Zr
0.006793 0.502249 0.167936 Zr
0.006822 0.003267 0.251434 Zr
0.007712 0.003151 0.334913 Zr
0.507776 0.502386 0.334772 Zr
0.506781 0.003252 0.418080 Zr
0.006675 0.502306 0.417935 Zr
0.507603 0.503236 0.418246 Zr
0.507765 0.002337 0.334746 Zr
0.006793 0.502249 0.334602 Zr
0.006822 0.003267 0.418101 Zr
0.528426 0.705088 0.105028 O
0.426590 0.800443 0.137908 O
0.985941 0.103092 0.114934 O
0.087951 0.402425 0.147816 O
0.715188 0.623830 0.088408 O
0.621183 0.524545 0.118438 O
0.408168 0.881772 0.015918 O
0.826896 0.414633 0.134396 O
0.799235 0.816626 0.070272 O
0.687614 0.981002 0.016780 O
0.106428 0.688918 0.164457 O
0.893254 0.090798 0.069379 O
0.892108 0.794765 0.165152 O
0.697565 0.710776 0.016908 O
0.816857 0.405368 0.087695 O
0.622307 0.100256 0.069279 O
0.988755 0.891487 0.134678 O
0.802830 0.971767 0.147604 O
0.418064 0.614024 0.016884 O
0.711642 0.084331 0.113668 O
0.096473 0.684695 0.118178 O
0.415252 0.533634 0.139185 O
0.525794 0.820866 0.069296 O
0.099030 0.421178 0.105223 O
0.476175 0.298339 0.064283 O
0.588820 0.207256 0.030330 O
0.038159 0.910836 0.055851 O
0.925727 0.594666 0.021906 O
0.299213 0.387691 0.081821 O
0.395919 0.484172 0.051339 O
0.604697 0.117861 0.152602 O
0.189188 0.591890 0.034823 O
0.215228 0.193111 0.100248 O
0.325404 0.021308 0.152634 O
0.909797 0.312434 0.004357 O
0.118577 0.913597 0.100215 O
0.128239 0.210685 0.005057 O
0.321175 0.294713 0.153606 O
0.193297 0.601904 0.081102 O
0.386252 0.903596 0.099248 O
0.028965 0.116712 0.035104 O
0.209543 0.024008 0.021699 O
0.595398 0.388837 0.152720 O
0.304881 0.922019 0.054573 O
0.919052 0.322430 0.051065 O
0.607685 0.481578 0.031610 O
0.485513 0.183135 0.100123 O
0.906854 0.583518 0.064497 O
0.528426 0.705088 0.271695 O
0.426590 0.800443 0.304574 O
0.985941 0.103092 0.281600 O
0.087951 0.402425 0.314482 O
0.715188 0.623830 0.255074 O
0.621183 0.524545 0.285105 O
0.408168 0.881772 0.182585 O
0.826896 0.414633 0.301063 O
0.799235 0.816626 0.236939 O
0.687614 0.981002 0.183447 O
0.106428 0.688918 0.331124 O
0.893254 0.090798 0.236045 O
0.892108 0.794765 0.331818 O
0.697565 0.710776 0.183574 O
0.816857 0.405368 0.254362 O
0.622307 0.100256 0.235945 O
0.988755 0.891487 0.301345 O
0.802830 0.971767 0.314271 O
0.418064 0.614024 0.183551 O
0.711642 0.084331 0.280334 O
0.096473 0.684695 0.284844 O
0.415252 0.533634 0.305852 O
0.525794 0.820866 0.235963 O
0.099030 0.421178 0.271889 O
0.476175 0.298339 0.230950 O
0.588820 0.207256 0.196996 O
0.038159 0.910836 0.222517 O
0.925727 0.594666 0.188573 O
0.299213 0.387691 0.248487 O
0.395919 0.484172 0.218006 O
0.604697 0.117861 0.319269 O
0.189188 0.591890 0.201490 O
0.215228 0.193111 0.266915 O
0.325404 0.021308 0.319301 O
0.909797 0.312434 0.171024 O
0.118577 0.913597 0.266881 O
0.128239 0.210685 0.171724 O
0.321175 0.294713 0.320272 O
0.193297 0.601904 0.247768 O
0.386252 0.903596 0.265915 O
0.028965 0.116712 0.201771 O
0.209543 0.024008 0.188365 O
0.595398 0.388837 0.319387 O
0.304881 0.922019 0.221240 O
0.919052 0.322430 0.217732 O
0.607685 0.481578 0.198276 O
0.485513 0.183135 0.266790 O
0.906854 0.583518 0.231164 O
0.528426 0.705088 0.438361 O
0.426590 0.800443 0.471241 O
0.985941 0.103092 0.448267 O
0.087951 0.402425 0.481149 O
0.715188 0.623830 0.421741 O
0.621183 0.524545 0.451772 O
0.408168 0.881772 0.349251 O
0.826896 0.414633 0.467729 O
0.799235 0.816626 0.403605 O
0.687614 0.981002 0.350113 O
0.106428 0.688918 0.497791 O
0.893254 0.090798 0.402712 O
0.892108 0.794765 0.498485 O
0.697565 0.710776 0.350241 O
0.816857 0.405368 0.421028 O
0.622307 0.100256 0.402612 O
0.988755 0.891487 0.468011 O
0.802830 0.971767 0.480938 O
0.418064 0.614024 0.350218 O
0.711642 0.084331 0.447001 O
0.096473 0.684695 0.451511 O
0.415252 0.533634 0.472519 O
0.525794 0.820866 0.402630 O
0.099030 0.421178 0.438556 O
0.476175 0.298339 0.397617 O
0.588820 0.207256 0.363663 O
0.038159 0.910836 0.389184 O
0.925727 0.594666 0.355240 O
0.299213 0.387691 0.415154 O
0.395919 0.484172 0.384673 O
0.604697 0.117861 0.485935 O
0.189188 0.591890 0.368157 O
0.215228 0.193111 0.433582 O
0.325404 0.021308 0.485967 O
0.909797 0.312434 0.337690 O
0.118577 0.913597 0.433548 O
0.128239 0.210685 0.338391 O
0.321175 0.294713 0.486939 O
0.193297 0.601904 0.414435 O
0.386252 0.903596 0.432582 O
0.028965 0.116712 0.368438 O
0.209543 0.024008 0.355032 O
0.595398 0.388837 0.486054 O
0.304881 0.922019 0.387906 O
0.919052 0.322430 0.384399 O
0.607685 0.481578 0.364943 O
0.485513 0.183135 0.433456 O
0.906854 0.583518 0.397831 O

0.000000 0.000000 0.000000
0.000000 0.000000 0.000000
0.000000 0.000000 0.000000
0.000000 0.000000 0.000000
0.000000 0.000000 0.000000
0.000000 0.000000 0.000000
0.000000 0.000000 0.000000
0.000000 0.000000 0.000000
0.000000 0.000000 0.000000
0.000000 0.000000 0.000000
0.000000 0.000000 0.000000
0.000000 0.000000 0.000000
0.000000 0.000000 0.000000
0.000000 0.000000 0.000000
0.000000 0.000000 0.000000
0.000000 0.000000 0.000000
0.000000 0.000000 0.000000
0.000000 0.000000 0.000000
0.000000 0.000000 0.000000
0.000000 0.000000 0.000000
0.000000 0.000000 0.000000
0.000000 0.000000 0.000000
0.000000 0.000000 0.000000
0.000000 0.000000 0.000000
0.000000 0.000000 0.000000
0.000000 0.000000 0.000000
0.000000 0.000000 0.000000
0.000000 0.000000 0.000000
0.000000 0.000000 0.000000
0.000000 0.000000 0.000000
0.000000 0.000000 0.000000
0.000000 0.000000 0.000000
0.000000 0.000000 0.000000
0.000000 0.000000 0.000000
0.000000 0.000000 0.000000
0.000000 0.000000 0.000000
0.000000 0.000000 0.000000
0.000000 0.000000 0.000000
0.000000 0.000000 0.000000
0.000000 0.000000 0.000000
0.000000 0.000000 0.000000
0.000000 0.000000 0.000000
0.000000 0.000000 0.000000
0.000000 0.000000 0.000000
0.000000 0.000000 0.000000
0.000000 0.000000 0.000000
0.000000 0.000000 0.000000
0.000000 0.000000 0.000000
0.000000 0.000000 0.000000
0.000000 0.000000 0.000000
0.000000 0.000000 0.000000
0.000000 0.000000 0.000000
0.000000 0.000000 0.000000
0.000000 0.000000 0.000000
0.000000 0.000000 0.000000
0.000000 0.000000 0.000000
0.000000 0.000000 0.000000
0.000000 0.000000 0.000000
0.000000 0.000000 0.000000
0.000000 0.000000 0.000000
0.000000 0.000000 0.000000
0.000000 0.000000 0.000000
0.000000 0.000000 0.000000
0.000000 0.000000 0.000000
0.000000 0.000000 0.000000
0.000000 0.000000 0.000000
0.000000 0.000000 0.000000
0.000000 0.000000 0.000000
0.000000 0.000000 0.000000
0.000000 0.000000 0.000000
0.000000 0.000000 0.000000
0.000000 0.000000 0.000000
0.000000 0.000000 0.000000
0.000000 0.000000 0.000000
0.000000 0.000000 0.000000
0.000000 0.000000 0.000000
0.000000 0.000000 0.000000
0.000000 0.000000 0.000000
0.000000 0.000000 0.000000
0.000000 0.000000 0.000000
0.000000 0.000000 0.000000
0.000000 0.000000 0.000000
0.000000 0.000000 0.000000
0.000000 0.000000 0.000000
0.000000 0.000000 0.000000
0.000000 0.000000 0.000000
0.000000 0.000000 0.000000
0.000000 0.000000 0.000000
0.000000 0.000000 0.000000
0.000000 0.000000 0.000000
0.000000 0.000000 0.000000
0.000000 0.000000 0.000000
0.000000 0.000000 0.000000
0.000000 0.000000 0.000000
0.000000 0.000000 0.000000
0.000000 0.000000 0.000000
0.000000 0.000000 0.000000
0.000000 0.000000 0.000000
0.000000 0.000000 0.000000
0.000000 0.000000 0.000000
0.000000 0.000000 0.000000
0.000000 0.000000 0.000000
0.000000 0.000000 0.000000
0.000000 0.000000 0.000000
0.000000 0.000000 0.000000
0.000000 0.000000 0.000000
0.000000 0.000000 0.000000
0.000000 0.000000 0.000000
0.000000 0.000000 0.000000
0.000000 0.000000 0.000000
0.000000 0.000000 0.000000
0.000000 0.000000 0.000000
0.000000 0.000000 0.000000
0.000000 0.000000 0.000000
0.000000 0.000000 0.000000
0.000000 0.000000 0.000000
0.000000 0.000000 0.000000
0.000000 0.000000 0.000000
0.000000 0.000000 0.000000
0.000000 0.000000 0.000000
0.000000 0.000000 0.000000
0.000000 0.000000 0.000000
0.000000 0.000000 0.000000
0.000000 0.000000 0.000000
0.000000 0.000000 0.000000
0.000000 0.000000 0.000000
0.000000 0.000000 0.000000
0.000000 0.000000 0.000000
0.000000 0.000000 0.000000
0.000000 0.000000 0.000000
0.000000 0.000000 0.000000
0.000000 0.000000 0.000000
0.000000 0.000000 0.000000
0.000000 0.000000 0.000000
0.000000 0.000000 0.000000
0.000000 0.000000 0.000000
0.000000 0.000000 0.000000
0.000000 0.000000 0.000000
0.000000 0.000000 0.000000
0.000000 0.000000 0.000000
0.000000 0.000000 0.000000
0.000000 0.000000 0.000000
0.000000 0.000000 0.000000
0.000000 0.000000 0.000000
0.000000 0.000000 0.000000
0.000000 0.000000 0.000000
0.000000 0.000000 0.000000
0.000000 0.000000 0.000000
0.000000 0.000000 0.000000
0.000000 0.000000 0.000000
0.000000 0.000000 0.000000
0.000000 0.000000 0.000000
0.000000 0.000000 0.000000
0.000000 0.000000 0.000000
0.000000 0.000000 0.000000
0.000000 0.000000 0.000000
0.000000 0.000000 0.000000
0.000000 0.000000 0.000000
0.000000 0.000000 0.000000
0.000000 0.000000 0.000000
0.000000 0.000000 0.000000
0.000000 0.000000 0.000000
0.000000 0.000000 0.000000
0.000000 0.000000 0.000000
0.000000 0.000000 0.000000
0.000000 0.000000 0.000000
0.000000 0.000000 0.000000
0.000000 0.000000 0.000000
0.000000 0.000000 0.000000
0.000000 0.000000 0.000000
0.000000 0.000000 0.000000
0.000000 0.000000 0.000000
0.000000 0.000000 0.000000
0.000000 0.000000 0.000000
0.000000 0.000000 0.000000
0.000000 0.000000 0.000000
0.000000 0.000000 0.000000
0.000000 0.000000 0.000000
0.000000 0.000000 0.000000
0.000000 0.000000 0.000000
0.000000 0.000000 0.000000
0.000000 0.000000 0.000000
0.000000 0.000000 0.000000
0.000000 0.000000 0.000000
0.000000 0.000000 0.000000
0.000000 0.000000 0.000000
0.000000 0.000000 0.000000
0.000000 0.000000 0.000000
0.000000 0.000000 0.000000
0.000000 0.000000 0.000000
0.000000 0.000000 0.000000
0.000000 0.000000 0.000000
0.000000 0.000000 0.000000
0.000000 0.000000 0.000000
0.000000 0.000000 0.000000
0.000000 0.000000 0.000000
0.000000 0.000000 0.000000
0.000000 0.000000 0.000000
0.000000 0.000000 0.000000
0.000000 0.000000 0.000000
0.000000 0.000000 0.000000
0.000000 0.000000 0.000000
0.000000 0.000000 0.000000
0.000000 0.000000 0.000000
0.000000 0.000000 0.000000
0.000000 0.000000 0.000000
0.000000 0.000000 0.000000
0.000000 0.000000 0.000000
0.000000 0.000000 0.000000
0.000000 0.000000 0.000000
0.000000 0.000000 0.000000
0.000000 0.000000 0.000000
0.000000 0.000000 0.000000
0.000000 0.000000 0.000000
0.000000 0.000000 0.000000
0.000000 0.000000 0.000000
0.000000 0.000000 0.000000
0.000000 0.000000 0.000000
0.000000 0.000000 0.000000
0.000000 0.000000 0.000000
0.000000 0.000000 0.000000
0.000000 0.000000 0.000000
0.000000 0.000000 0.000000
0.000000 0.000000 0.000000
0.000000 0.000000 0.000000
0.000000 0.000000 0.000000
0.000000 0.000000 0.000000
0.000000 0.000000 0.000000
0.000000 0.000000 0.000000
0.000000 0.000000 0.000000
0.000000 0.000000 0.000000
0.000000 0.000000 0.000000
0.000000 0.000000 0.000000
0.000000 0.000000 0.000000
0.000000 0.000000 0.000000
0.000000 0.000000 0.000000
0.000000 0.000000 0.000000
0.000000 0.000000 0.000000
0.000000 0.000000 0.000000
0.000000 0.000000 0.000000
0.000000 0.000000 0.000000
0.000000 0.000000 0.000000
0.000000 0.000000 0.000000
0.000000 0.000000 0.000000
0.000000 0.000000 0.000000
0.000000 0.000000 0.000000
0.000000 0.000000 0.000000
0.000000 0.000000 0.000000
0.000000 0.000000 0.000000
0.000000 0.000000 0.000000
0.000000 0.000000 0.000000
0.000000 0.000000 0.000000
0.000000 0.000000 0.000000
0.000000 0.000000 0.000000
0.000000 0.000000 0.000000
0.000000 0.000000 0.000000
0.000000 0.000000 0.000000
0.000000 0.000000 0.000000
0.000000 0.000000 0.000000
0.000000 0.000000 0.000000
0.000000 0.000000 0.000000
0.000000 0.000000 0.000000
0.000000 0.000000 0.000000
0.000000 0.000000 0.000000
0.000000 0.000000 0.000000
0.000000 0.000000 0.000000
0.000000 0.000000 0.000000
0.000000 0.000000 0.000000
0.000000 0.000000 0.000000
0.000000 0.000000 0.000000
0.000000 0.000000 0.000000
0.000000 0.000000 0.000000
0.000000 0.000000 0.000000
0.000000 0.000000 0.000000
0.000000 0.000000 0.000000
0.000000 0.000000 0.000000
0.000000 0.000000 0.000000
0.000000 0.000000 0.000000
0.000000 0.000000 0.000000
0.000000 0.000000 0.000000
0.000000 0.000000 0.000000
0.000000 0.000000 0.000000
0.000000 0.000000 0.000000
0.000000 0.000000 0.000000
0.000000 0.000000 0.000000
0.000000 0.000000 0.000000
0.000000 0.000000 0.000000
0.000000 0.000000 0.000000
