ALGO = Fast
EDIFF = 0.0012000000000000001
EDIFFG = 1e-05
ENCUT = 520
HFSCREEN = 0.2
IBRION = 2
ICHARG = 1
ISIF = 3
ISMEAR = -5
ISPIN = 2
LHFCALC = True
LORBIT = 11
LREAL = Auto
LWAVE = False
MAGMOM = 8*5.0 16*0.6
NELM = 100
NSW = 99
PREC = Accurate
SIGMA = 0.05
