Na1 Sn1 S1                              
   1.0000000000000000     
     5.0868558199623592    0.0000000000000000    0.0000000000000000
    -2.5434279099811796    4.4053463655275831    0.0000000000000000
     0.0000000000000000    0.0000000000000000    3.6865284042659101
   Na   Sn   S 
     1     1     1
Direct
  0.0000000000000000 -0.0000000000000000 -0.0000000000000000
  0.6666667915696394  0.3333331408642266  0.0000000000000000
  0.3333331408511242  0.6666662817022484  0.0000000000000000

  0.00000000E+00  0.00000000E+00  0.00000000E+00
  0.00000000E+00  0.00000000E+00  0.00000000E+00
  0.00000000E+00  0.00000000E+00  0.00000000E+00
