pymatgen with grid density = 500 / number of atoms
0
Gamma
4 4 6
