Na1 Sn1 S1
1.0
   5.0894397055713059    0.0000000000000000   -0.0000000000000000
  -2.5447198527856529    4.4075840761054899    0.0000000000000000
  -0.0000000000000000    0.0000000000000000    3.5606256298502656
Na Sn S
1 1 1
direct
   0.0000000000000000    0.0000000000000000    0.0000000000000000 Na
   0.6666667915696394    0.3333331408642266    0.0000000000000000 Sn
   0.3333331408511242    0.6666662817022484    0.0000000000000000 S
