Na16 S32                                
   1.0000000000000000     
     9.6988024508307529    0.0000000000000000    0.0000000000000006
     0.0000000000000015    9.6988024508307529    0.0000000000000006
     0.0000000000000000    0.0000000000000000   11.9550323773583678
   Na   S 
    16    32
Direct
 -0.0000000000000000 -0.0000000000000000  0.8284645283922856
 -0.0000000000000000 -0.0000000000000000  0.1715354716077145
 -0.0000000000000000  0.5000000000000000  0.4215354716077143
 -0.0000000000000000  0.5000000000000000  0.0784645283922855
  0.2500000000000000  0.2286775428503217  0.3750000000000000
  0.7713224571496784  0.2500000000000000  0.6250000000000000
  0.7286775428503216  0.2500000000000000  0.1250000000000000
  0.2500000000000000  0.2713224571496780  0.8750000000000000
  0.5000000000000000  0.5000000000000000  0.3284645283922857
  0.5000000000000000  0.5000000000000000  0.6715354716077144
  0.5000000000000000 -0.0000000000000000  0.9215354716077144
  0.5000000000000000 -0.0000000000000000  0.5784645283922856
  0.7500000000000000  0.7286775428503216  0.8750000000000000
  0.2713224571496780  0.7500000000000000  0.1250000000000000
  0.2286775428503217  0.7500000000000000  0.6250000000000000
  0.7500000000000000  0.7713224571496784  0.3750000000000000
  0.2478886143592503  0.4671509479817308  0.2039098330122251
  0.5328490520182690  0.2478886143592503  0.7960901669877748
  0.9671509479817310  0.2521113856407499  0.2960901669877747
  0.2478886143592503  0.0328490520182692  0.0460901669877749
  0.7521113856407501  0.9671509479817310  0.0460901669877749
  0.2521113856407499  0.0328490520182692  0.7039098330122252
  0.4671509479817308  0.7478886143592499  0.4539098330122253
  0.5328490520182690  0.2521113856407499  0.4539098330122253
  0.3814806766013147  0.3529791523003893  0.1026814737830609
  0.1470208476996107  0.8814806766013142  0.3973185262169391
  0.3529791523003893  0.6185193233986858  0.8973185262169391
  0.3814806766013147  0.1470208476996107  0.1473185262169392
  0.6185193233986858  0.8529791523003897  0.1473185262169392
  0.1185193233986853  0.1470208476996107  0.6026814737830609
  0.3529791523003893  0.8814806766013142  0.3526814737830609
  0.6470208476996103  0.1185193233986853  0.3526814737830609
  0.7478886143592499  0.9671509479817310  0.7039098330122252
  0.0328490520182692  0.7478886143592499  0.2960901669877747
  0.4671509479817308  0.7521113856407501  0.7960901669877748
  0.7478886143592499  0.5328490520182690  0.5460901669877748
  0.2521113856407499  0.4671509479817308  0.5460901669877748
  0.7521113856407501  0.5328490520182690  0.2039098330122251
  0.9671509479817310  0.2478886143592503  0.9539098330122252
  0.0328490520182692  0.7521113856407501  0.9539098330122252
  0.8814806766013142  0.8529791523003897  0.6026814737830609
  0.6470208476996103  0.3814806766013147  0.8973185262169391
  0.8529791523003897  0.1185193233986853  0.3973185262169391
  0.8814806766013142  0.6470208476996103  0.6473185262169391
  0.1185193233986853  0.3529791523003893  0.6473185262169391
  0.6185193233986858  0.6470208476996103  0.1026814737830609
  0.8529791523003897  0.3814806766013147  0.8526814737830609
  0.1470208476996107  0.6185193233986858  0.8526814737830609

  0.00000000E+00  0.00000000E+00  0.00000000E+00
  0.00000000E+00  0.00000000E+00  0.00000000E+00
  0.00000000E+00  0.00000000E+00  0.00000000E+00
  0.00000000E+00  0.00000000E+00  0.00000000E+00
  0.00000000E+00  0.00000000E+00  0.00000000E+00
  0.00000000E+00  0.00000000E+00  0.00000000E+00
  0.00000000E+00  0.00000000E+00  0.00000000E+00
  0.00000000E+00  0.00000000E+00  0.00000000E+00
  0.00000000E+00  0.00000000E+00  0.00000000E+00
  0.00000000E+00  0.00000000E+00  0.00000000E+00
  0.00000000E+00  0.00000000E+00  0.00000000E+00
  0.00000000E+00  0.00000000E+00  0.00000000E+00
  0.00000000E+00  0.00000000E+00  0.00000000E+00
  0.00000000E+00  0.00000000E+00  0.00000000E+00
  0.00000000E+00  0.00000000E+00  0.00000000E+00
  0.00000000E+00  0.00000000E+00  0.00000000E+00
  0.00000000E+00  0.00000000E+00  0.00000000E+00
  0.00000000E+00  0.00000000E+00  0.00000000E+00
  0.00000000E+00  0.00000000E+00  0.00000000E+00
  0.00000000E+00  0.00000000E+00  0.00000000E+00
  0.00000000E+00  0.00000000E+00  0.00000000E+00
  0.00000000E+00  0.00000000E+00  0.00000000E+00
  0.00000000E+00  0.00000000E+00  0.00000000E+00
  0.00000000E+00  0.00000000E+00  0.00000000E+00
  0.00000000E+00  0.00000000E+00  0.00000000E+00
  0.00000000E+00  0.00000000E+00  0.00000000E+00
  0.00000000E+00  0.00000000E+00  0.00000000E+00
  0.00000000E+00  0.00000000E+00  0.00000000E+00
  0.00000000E+00  0.00000000E+00  0.00000000E+00
  0.00000000E+00  0.00000000E+00  0.00000000E+00
  0.00000000E+00  0.00000000E+00  0.00000000E+00
  0.00000000E+00  0.00000000E+00  0.00000000E+00
  0.00000000E+00  0.00000000E+00  0.00000000E+00
  0.00000000E+00  0.00000000E+00  0.00000000E+00
  0.00000000E+00  0.00000000E+00  0.00000000E+00
  0.00000000E+00  0.00000000E+00  0.00000000E+00
  0.00000000E+00  0.00000000E+00  0.00000000E+00
  0.00000000E+00  0.00000000E+00  0.00000000E+00
  0.00000000E+00  0.00000000E+00  0.00000000E+00
  0.00000000E+00  0.00000000E+00  0.00000000E+00
  0.00000000E+00  0.00000000E+00  0.00000000E+00
  0.00000000E+00  0.00000000E+00  0.00000000E+00
  0.00000000E+00  0.00000000E+00  0.00000000E+00
  0.00000000E+00  0.00000000E+00  0.00000000E+00
  0.00000000E+00  0.00000000E+00  0.00000000E+00
  0.00000000E+00  0.00000000E+00  0.00000000E+00
  0.00000000E+00  0.00000000E+00  0.00000000E+00
  0.00000000E+00  0.00000000E+00  0.00000000E+00
