pymatgen with grid density = 712 / number of atoms
0
Monkhorst
2 2 2
