Na40 Al8 S32                            
   1.0000000000000000     
    12.1026382039385112   -0.0000000000000000    0.0000000000000007
    -0.0000000000000004    7.0938170788834114    0.0000000000000004
     0.0000000000000000    0.0000000000000000   21.6510149562332330
   Na   Al   S 
    40     8    32
Direct
  0.3843174702676261  0.9341387455689321  0.5071239134514641
  0.6046238644103364  0.4542647499902598  0.0080833869383167
  0.1319257624153870  0.0750387789744377  1.0115028665705568
  0.1705799150149176  0.3894905990248699  0.5072854161150586
  0.3701077908599937  0.6611922172557968  1.0050446330885596
  0.6585893844471238  0.0170578812494822  0.4838429132140790
  0.8992495711198250  0.5500320575688484  0.4928619480188980
  0.8270331431599711  0.9383436294199659 -0.0092752045993972
  0.2674365151893557  0.5543008824930199  0.3732678247940557
  0.7517139688493054  0.0959797525990779  0.1243433020157805
  0.2233549866311423  0.4497625488533211  0.8811914945614622
  0.1974111559197493  0.0378928408375241  0.3828976186069145
  0.2918658058576837  0.9791492367460696  0.8617068160639088
  0.7120675665589150  0.4530900851327860  0.6118911628468673
  0.7924669291103033  0.9291445490374922  0.6276648711949628
  0.8079865285180718  0.5752446534469984  0.1305461217593570
  0.5703471076408394  0.5601050886751663  0.4376229663449728
  0.4121420750387680  0.0633681171690484  0.0821318925741212
  0.9495956661653138  0.4440396371111383  0.9218415045049241
  0.9545045258609481  0.0110642284480556  0.4461496611274299
  0.5541046481152387  0.9989811050181855  0.9531879138181335
  0.4426235103927160  0.4451359167366337  0.5594999408655074
  0.0974664499289467  0.8545393609450077  0.5765070802843871
  0.0821670474659941  0.5547119850792926  0.0602417322944489
  0.6489692232067903  0.3475371335507856  0.2406360850821122
  0.4357130127453234  0.9328681755545737  0.2303541704376127
  0.8921948225956596  0.6345184888464671  0.7513397370641955
  0.9322036441487519  0.8857478978338138  0.2392811328585060
  0.6382955019175125  0.1936399858669011  0.7476623035952603
  0.3920152505236806  0.6290245398783171  0.7450536044505875
  0.0710194137330437  0.1869182032132910  0.7619415066992327
  0.1087327008974974  0.3531854349434500  0.2652063243862417
  0.8357205384849254  0.1560774766017215  0.8260596537697241
  0.1449012667376896  0.5853555983172557  0.6612541748761346
  0.6487158580325078  0.8503750552309103  0.3271595256455446
  0.6477417059784024  0.6477975242499833  0.8375540279617332
  0.8348568596510397  0.3324461914554419  0.3312747097126409
  0.1669044913910925  0.8811525059967725  0.1620849150954258
  0.3410462239143030  0.4150703145864131  0.1781622743727588
  0.3131477246962179  0.1465475333703063  0.6835754322214191
  0.0601320136999918  0.8482757663647726  0.8751351210534889
  0.9466248814737573  0.3004432347077704  0.6193730980456454
  0.4501949359616912  0.1705532562750606  0.3706892402456133
  0.4504856048388791  0.3693414604321998  0.8846118190697888
  0.0223246662962088  0.6316231812418385  0.3695790257468667
  0.9754996480768153  0.1714996399095348  0.1248177062217296
  0.5638033667682935  0.6352754517250807  0.1364312320939336
  0.5102083483218963  0.8291392089355957  0.6363212093768401
  0.3869287426919583  0.2117316341117476  0.9771283990956654
  0.6161370051033258  0.7223790581195797  0.5435382306365806
  0.1104010649380643  0.7809420063468957  0.4559257671184145
  0.1483526254874454  0.7020676634452004  0.9456791700575572
  0.3888697054582180  0.3068469180824749  0.4519520808118846
  0.6187468284331280  0.8055741894014824  0.0447450619027488
  0.8882751148540400  0.2762907474832539  0.0350408197030766
  0.8533455600958696  0.1745683371854008  0.5387919172149749
  0.4143264507685740  0.8507152815884461  0.3657472100080427
  0.5705053786134636  0.3373758830003267  0.1259950831225645
  0.0642717504008681  0.1445340312151850  0.8813148560537232
  0.0386719866164665  0.3226888168601272  0.3868628934267911
  0.4392700812521043  0.6863208023040218  0.8927245098276170
  0.5259497977605041  0.1385546143546971  0.6209955127228609
  0.9513984935179783  0.6115046945890766  0.6126223270464199
  0.9659437526670857  0.8544365663078390  0.1002962696211266
  0.1252220302077106  0.1901483464505411  0.6157779098392898
  0.8638751060702198  0.7879369326321500  0.8653290052106561
  0.3745960605802920  0.7121653995711054  0.1369001376389731
  0.3205347089387679  0.7381749199413083  0.6214152994880413
  0.1561824604867807  0.2515975011263614  0.1320118806699543
  0.8420078631485423  0.7050857082093783  0.3537003399671146
  0.6219114411494031  0.2275615489750995  0.3656230099792497
  0.6419216691832373  0.2903974905828001  0.8790854802885237
  0.6531862083878970  0.7670489065657177  0.2103510948922039
  0.3347537690791877  0.2532262867036091  0.2890758827956630
  0.8454789953675664  0.2145001232092221  0.7110636762051978
  0.8835447712222513  0.2795513530428081  0.2123712467906981
  0.6001285361145893  0.7732135178984315  0.7261246637246580
  0.3663326424410977  0.2549579480287713  0.7967874186634720
  0.1316623057407129  0.7740134336752760  0.7822693909151915
  0.1271139650080074  0.7442879397741496  0.2900144308707696

  0.62973885E-02 -0.20175762E-02  0.12578959E-02
 -0.98733444E-03  0.95395411E-02  0.11845812E-01
 -0.53342530E-02 -0.43330322E-02 -0.14047656E-02
 -0.29000001E-02 -0.70374117E-02 -0.12271705E-01
  0.19032160E-02 -0.49607383E-02  0.54178222E-03
 -0.33777977E-02  0.43942079E-02 -0.10020443E-01
 -0.11712797E-02 -0.26730915E-02  0.12829738E-01
 -0.15325488E-02 -0.46410755E-02 -0.42811552E-02
 -0.47628651E-02  0.51720885E-03  0.72773928E-02
  0.85577457E-03 -0.21101589E-02 -0.53970481E-02
 -0.13751339E-02  0.19447067E-02  0.98056120E-02
  0.57116374E-02  0.62181282E-02 -0.63221900E-02
 -0.38650746E-02 -0.26219404E-02  0.18233816E-02
 -0.34263597E-02  0.33937905E-02 -0.26814043E-02
  0.77167569E-03  0.29833809E-03 -0.73397539E-02
  0.50382755E-03  0.53181252E-02  0.29269867E-02
 -0.24314607E-02  0.31130231E-02  0.47840592E-03
 -0.35066372E-02 -0.40782755E-02 -0.45918117E-03
  0.23438699E-02  0.40794140E-02 -0.30900083E-02
  0.72125882E-03 -0.53825011E-02  0.31900046E-02
 -0.50823091E-02  0.32814504E-02 -0.55906813E-02
  0.20578894E-02 -0.33783171E-02 -0.18230355E-02
 -0.61194465E-02 -0.10137888E-01 -0.37462894E-02
  0.62600066E-02 -0.64868439E-02  0.13280553E-01
  0.64955525E-03 -0.38975752E-02  0.70506316E-02
 -0.97592920E-02 -0.64833545E-02 -0.14503016E-01
 -0.23994520E-02 -0.24459906E-02 -0.32714493E-02
  0.84782675E-03  0.38771983E-02  0.66799240E-02
  0.55344927E-04  0.19068273E-02  0.76901035E-02
 -0.20202147E-02  0.25652345E-02  0.13828811E-02
 -0.12265138E-01 -0.11487215E-01  0.38812342E-02
 -0.48240647E-02  0.82487622E-02 -0.19796537E-03
 -0.28865207E-02 -0.66958227E-02 -0.69944861E-03
  0.12140118E-01 -0.97763480E-03  0.47660777E-03
 -0.11701121E-01  0.66471713E-03 -0.39273826E-02
  0.12095107E-01 -0.11707708E-02 -0.39897780E-02
 -0.14227514E-03  0.97431252E-03 -0.33829056E-02
 -0.26428997E-02 -0.22497462E-02 -0.35768163E-02
  0.11353796E-02  0.19948599E-02 -0.80026660E-02
  0.61416887E-02  0.65807360E-02  0.71902621E-04
  0.65465732E-02  0.17586671E-03  0.35904203E-02
  0.14410223E-03  0.58933529E-03 -0.40256157E-02
 -0.96013186E-02 -0.14093021E-03  0.29080241E-02
 -0.33583073E-02  0.10436911E-02 -0.22542377E-02
  0.20885671E-02 -0.75657432E-02 -0.74221225E-02
 -0.60838556E-02  0.46248998E-02 -0.40348539E-02
  0.68392210E-02 -0.91290624E-03  0.46015976E-02
  0.68610161E-02  0.71449705E-02  0.66405008E-02
  0.61774125E-02  0.10755737E-01 -0.73333602E-03
  0.11099630E-02 -0.10185325E-02  0.36290081E-02
  0.50506476E-02  0.11602578E-01  0.15185048E-02
  0.18656982E-02  0.27709160E-02 -0.39110585E-03
 -0.28065564E-02  0.23739476E-02  0.68531393E-02
 -0.13362927E-02  0.14032829E-02  0.22838532E-02
 -0.69927251E-02  0.28323723E-02  0.48813261E-02
 -0.71699317E-02 -0.39876138E-02 -0.35041947E-02
  0.56537650E-02 -0.22849879E-02  0.52201886E-03
  0.11250335E-02 -0.71372799E-02 -0.12809610E-03
  0.65456634E-02  0.35185234E-02  0.83746125E-02
  0.45483204E-02 -0.26915191E-02  0.21321096E-02
 -0.76432804E-02  0.12872292E-02 -0.28671669E-02
  0.11713303E-02  0.63088505E-02 -0.30274812E-02
  0.93392601E-03 -0.63121670E-02 -0.98746997E-02
  0.39050580E-02  0.26626238E-02 -0.62164556E-02
  0.19564460E-02 -0.16046386E-02 -0.13530325E-01
  0.21243735E-03 -0.44202280E-02  0.45305014E-02
  0.23738141E-03  0.17456840E-02 -0.14843498E-02
  0.35304196E-02  0.75301633E-03 -0.14983068E-02
 -0.46036191E-02  0.19971468E-02  0.83520602E-03
 -0.25728291E-02 -0.55001760E-02  0.74732789E-02
  0.55175408E-02  0.10091919E-02  0.86980078E-02
  0.29990400E-03 -0.29094908E-03 -0.15035230E-02
  0.41160766E-02 -0.42128845E-02 -0.39599993E-03
  0.69440269E-02 -0.25874717E-02 -0.34689305E-02
  0.10475364E-02 -0.41900412E-02 -0.18392667E-04
 -0.34359266E-02  0.26632330E-02  0.99529013E-02
  0.93717999E-03  0.75871353E-02 -0.62088156E-04
 -0.46933852E-02  0.49278734E-02  0.28982722E-02
  0.40733503E-02  0.42503622E-02 -0.73111419E-02
 -0.42033818E-02 -0.94875391E-02  0.11002399E-02

           1
   2.0000000000000000     
 -0.38839956E+00  0.93019362E-02  0.83640359E-02 -0.39723254E+00
  0.38535813E+00  0.93356992E+00  0.50724011E+00
  0.60446070E+00  0.45695429E+00  0.91776370E-02
  0.13104426E+00  0.73817143E-01  0.11373102E-01
  0.17010068E+00  0.38750650E+00  0.50615182E+00
  0.37042230E+00  0.65979361E+00  0.50946799E-02
  0.65803119E+00  0.18296765E-01  0.48291728E+00
  0.89905601E+00  0.54927842E+00  0.49404709E+00
  0.82677988E+00  0.93703514E+00  0.99032933E+00
  0.26664944E+00  0.55444670E+00  0.37394007E+00
  0.75185539E+00  0.95384824E-01  0.12384475E+00
  0.22312774E+00  0.45031083E+00  0.88209728E+00
  0.19835502E+00  0.39645953E-01  0.38231361E+00
  0.29122709E+00  0.97841002E+00  0.86187525E+00
  0.71150135E+00  0.45404692E+00  0.61164347E+00
  0.79259445E+00  0.92922866E+00  0.62698687E+00
  0.80806979E+00  0.57674402E+00  0.13081650E+00
  0.56994530E+00  0.56098276E+00  0.43766716E+00
  0.41156259E+00  0.62218306E-01  0.82089476E-01
  0.94998300E+00  0.44518977E+00  0.92155607E+00
  0.95462372E+00  0.95467094E-02  0.44644434E+00
  0.55326478E+00  0.99990626E+00  0.95267148E+00
  0.44296358E+00  0.44418345E+00  0.55933154E+00
  0.96455192E-01  0.85168113E+00  0.57616102E+00
  0.83201534E-01  0.55288311E+00  0.61468516E-01
  0.64907656E+00  0.34643827E+00  0.24128738E+00
  0.43410026E+00  0.93104029E+00  0.22901446E+00
  0.89179831E+00  0.63382888E+00  0.75103754E+00
  0.93234375E+00  0.88684102E+00  0.23989819E+00
  0.63830465E+00  0.19417759E+00  0.74837267E+00
  0.39168140E+00  0.62974777E+00  0.74518135E+00
  0.68992560E-01  0.18367955E+00  0.76230003E+00
  0.10793551E+00  0.35551106E+00  0.26518804E+00
  0.83524353E+00  0.15418969E+00  0.82599504E+00
  0.14690746E+00  0.58507997E+00  0.66129820E+00
  0.64678221E+00  0.85056246E+00  0.32679674E+00
  0.64974046E+00  0.64746744E+00  0.83718547E+00
  0.83483335E+00  0.33272088E+00  0.33096222E+00
  0.16646774E+00  0.88051822E+00  0.16175451E+00
  0.34123385E+00  0.41563274E+00  0.17742303E+00
  0.31416266E+00  0.14840288E+00  0.68358207E+00
  0.61213856E-01  0.84832535E+00  0.87546678E+00
  0.94664869E+00  0.30060939E+00  0.61900123E+00
  0.44860829E+00  0.17051352E+00  0.37095787E+00
  0.44993063E+00  0.36963571E+00  0.88440359E+00
  0.22669809E-01  0.62949013E+00  0.36889341E+00
  0.97449427E+00  0.17280356E+00  0.12444499E+00
  0.56493357E+00  0.63501807E+00  0.13685630E+00
  0.51134215E+00  0.83115363E+00  0.63693462E+00
  0.38794958E+00  0.21476406E+00  0.97706066E+00
  0.61632043E+00  0.72209190E+00  0.54387346E+00
  0.11123570E+00  0.78421319E+00  0.45606604E+00
  0.14866094E+00  0.70284888E+00  0.94564304E+00
  0.38840591E+00  0.30751622E+00  0.45258514E+00
  0.61852600E+00  0.80596982E+00  0.44956032E-01
  0.88711954E+00  0.27708929E+00  0.35491729E-01
  0.85216071E+00  0.17344409E+00  0.53846822E+00
  0.41526075E+00  0.85007106E+00  0.36579543E+00
  0.57069129E+00  0.33536363E+00  0.12598325E+00
  0.65353442E-01  0.14552603E+00  0.88208846E+00
  0.39423611E-01  0.32192998E+00  0.38705985E+00
  0.43800700E+00  0.68668372E+00  0.89245966E+00
  0.52614336E+00  0.14033330E+00  0.62071585E+00
  0.95155283E+00  0.60972507E+00  0.61171016E+00
  0.96658908E+00  0.85518725E+00  0.99722028E-01
  0.12554534E+00  0.18969594E+00  0.61452805E+00
  0.86391021E+00  0.78669071E+00  0.86574751E+00
  0.37463529E+00  0.71265757E+00  0.13676302E+00
  0.32111812E+00  0.73838722E+00  0.62127689E+00
  0.15542170E+00  0.25216057E+00  0.13208903E+00
  0.84158269E+00  0.70353501E+00  0.35439068E+00
  0.62282323E+00  0.22784608E+00  0.36642648E+00
  0.64197123E+00  0.29031546E+00  0.87894659E+00
  0.65386640E+00  0.76586114E+00  0.21031451E+00
  0.33590129E+00  0.25249679E+00  0.28875544E+00
  0.84565210E+00  0.21331880E+00  0.71106198E+00
  0.88297697E+00  0.28030221E+00  0.21329064E+00
  0.60028341E+00  0.77535260E+00  0.72611893E+00
  0.36555705E+00  0.25634729E+00  0.79705514E+00
  0.13233544E+00  0.77521176E+00  0.78159403E+00
  0.12641934E+00  0.74161306E+00  0.29011606E+00
  0.00000000E+00  0.00000000E+00  0.00000000E+00
  0.00000000E+00  0.00000000E+00  0.00000000E+00
  0.00000000E+00  0.00000000E+00  0.00000000E+00
  0.00000000E+00  0.00000000E+00  0.00000000E+00
  0.00000000E+00  0.00000000E+00  0.00000000E+00
  0.00000000E+00  0.00000000E+00  0.00000000E+00
  0.00000000E+00  0.00000000E+00  0.00000000E+00
  0.00000000E+00  0.00000000E+00  0.00000000E+00
  0.00000000E+00  0.00000000E+00  0.00000000E+00
  0.00000000E+00  0.00000000E+00  0.00000000E+00
  0.00000000E+00  0.00000000E+00  0.00000000E+00
  0.00000000E+00  0.00000000E+00  0.00000000E+00
  0.00000000E+00  0.00000000E+00  0.00000000E+00
  0.00000000E+00  0.00000000E+00  0.00000000E+00
  0.00000000E+00  0.00000000E+00  0.00000000E+00
  0.00000000E+00  0.00000000E+00  0.00000000E+00
  0.00000000E+00  0.00000000E+00  0.00000000E+00
  0.00000000E+00  0.00000000E+00  0.00000000E+00
  0.00000000E+00  0.00000000E+00  0.00000000E+00
  0.00000000E+00  0.00000000E+00  0.00000000E+00
  0.00000000E+00  0.00000000E+00  0.00000000E+00
  0.00000000E+00  0.00000000E+00  0.00000000E+00
  0.00000000E+00  0.00000000E+00  0.00000000E+00
  0.00000000E+00  0.00000000E+00  0.00000000E+00
  0.00000000E+00  0.00000000E+00  0.00000000E+00
  0.00000000E+00  0.00000000E+00  0.00000000E+00
  0.00000000E+00  0.00000000E+00  0.00000000E+00
  0.00000000E+00  0.00000000E+00  0.00000000E+00
  0.00000000E+00  0.00000000E+00  0.00000000E+00
  0.00000000E+00  0.00000000E+00  0.00000000E+00
  0.00000000E+00  0.00000000E+00  0.00000000E+00
  0.00000000E+00  0.00000000E+00  0.00000000E+00
  0.00000000E+00  0.00000000E+00  0.00000000E+00
  0.00000000E+00  0.00000000E+00  0.00000000E+00
  0.00000000E+00  0.00000000E+00  0.00000000E+00
  0.00000000E+00  0.00000000E+00  0.00000000E+00
  0.00000000E+00  0.00000000E+00  0.00000000E+00
  0.00000000E+00  0.00000000E+00  0.00000000E+00
  0.00000000E+00  0.00000000E+00  0.00000000E+00
  0.00000000E+00  0.00000000E+00  0.00000000E+00
  0.00000000E+00  0.00000000E+00  0.00000000E+00
  0.00000000E+00  0.00000000E+00  0.00000000E+00
  0.00000000E+00  0.00000000E+00  0.00000000E+00
  0.00000000E+00  0.00000000E+00  0.00000000E+00
  0.00000000E+00  0.00000000E+00  0.00000000E+00
  0.00000000E+00  0.00000000E+00  0.00000000E+00
  0.00000000E+00  0.00000000E+00  0.00000000E+00
  0.00000000E+00  0.00000000E+00  0.00000000E+00
  0.00000000E+00  0.00000000E+00  0.00000000E+00
  0.00000000E+00  0.00000000E+00  0.00000000E+00
  0.00000000E+00  0.00000000E+00  0.00000000E+00
  0.00000000E+00  0.00000000E+00  0.00000000E+00
  0.00000000E+00  0.00000000E+00  0.00000000E+00
  0.00000000E+00  0.00000000E+00  0.00000000E+00
  0.00000000E+00  0.00000000E+00  0.00000000E+00
  0.00000000E+00  0.00000000E+00  0.00000000E+00
  0.00000000E+00  0.00000000E+00  0.00000000E+00
  0.00000000E+00  0.00000000E+00  0.00000000E+00
  0.00000000E+00  0.00000000E+00  0.00000000E+00
  0.00000000E+00  0.00000000E+00  0.00000000E+00
  0.00000000E+00  0.00000000E+00  0.00000000E+00
  0.00000000E+00  0.00000000E+00  0.00000000E+00
  0.00000000E+00  0.00000000E+00  0.00000000E+00
  0.00000000E+00  0.00000000E+00  0.00000000E+00
  0.00000000E+00  0.00000000E+00  0.00000000E+00
  0.00000000E+00  0.00000000E+00  0.00000000E+00
  0.00000000E+00  0.00000000E+00  0.00000000E+00
  0.00000000E+00  0.00000000E+00  0.00000000E+00
  0.00000000E+00  0.00000000E+00  0.00000000E+00
  0.00000000E+00  0.00000000E+00  0.00000000E+00
  0.00000000E+00  0.00000000E+00  0.00000000E+00
  0.00000000E+00  0.00000000E+00  0.00000000E+00
  0.00000000E+00  0.00000000E+00  0.00000000E+00
  0.00000000E+00  0.00000000E+00  0.00000000E+00
  0.00000000E+00  0.00000000E+00  0.00000000E+00
  0.00000000E+00  0.00000000E+00  0.00000000E+00
  0.00000000E+00  0.00000000E+00  0.00000000E+00
  0.00000000E+00  0.00000000E+00  0.00000000E+00
  0.00000000E+00  0.00000000E+00  0.00000000E+00
  0.00000000E+00  0.00000000E+00  0.00000000E+00
  0.00000000E+00  0.00000000E+00  0.00000000E+00
  0.00000000E+00  0.00000000E+00  0.00000000E+00
  0.00000000E+00  0.00000000E+00  0.00000000E+00
  0.00000000E+00  0.00000000E+00  0.00000000E+00
  0.00000000E+00  0.00000000E+00  0.00000000E+00
  0.00000000E+00  0.00000000E+00  0.00000000E+00
  0.00000000E+00  0.00000000E+00  0.00000000E+00
  0.00000000E+00  0.00000000E+00  0.00000000E+00
  0.00000000E+00  0.00000000E+00  0.00000000E+00
  0.00000000E+00  0.00000000E+00  0.00000000E+00
  0.00000000E+00  0.00000000E+00  0.00000000E+00
  0.00000000E+00  0.00000000E+00  0.00000000E+00
  0.00000000E+00  0.00000000E+00  0.00000000E+00
  0.00000000E+00  0.00000000E+00  0.00000000E+00
  0.00000000E+00  0.00000000E+00  0.00000000E+00
  0.00000000E+00  0.00000000E+00  0.00000000E+00
  0.00000000E+00  0.00000000E+00  0.00000000E+00
  0.00000000E+00  0.00000000E+00  0.00000000E+00
  0.00000000E+00  0.00000000E+00  0.00000000E+00
  0.00000000E+00  0.00000000E+00  0.00000000E+00
  0.00000000E+00  0.00000000E+00  0.00000000E+00
  0.00000000E+00  0.00000000E+00  0.00000000E+00
  0.00000000E+00  0.00000000E+00  0.00000000E+00
  0.00000000E+00  0.00000000E+00  0.00000000E+00
  0.00000000E+00  0.00000000E+00  0.00000000E+00
  0.00000000E+00  0.00000000E+00  0.00000000E+00
  0.00000000E+00  0.00000000E+00  0.00000000E+00
  0.00000000E+00  0.00000000E+00  0.00000000E+00
  0.00000000E+00  0.00000000E+00  0.00000000E+00
  0.00000000E+00  0.00000000E+00  0.00000000E+00
  0.00000000E+00  0.00000000E+00  0.00000000E+00
  0.00000000E+00  0.00000000E+00  0.00000000E+00
  0.00000000E+00  0.00000000E+00  0.00000000E+00
  0.00000000E+00  0.00000000E+00  0.00000000E+00
  0.00000000E+00  0.00000000E+00  0.00000000E+00
  0.00000000E+00  0.00000000E+00  0.00000000E+00
  0.00000000E+00  0.00000000E+00  0.00000000E+00
  0.00000000E+00  0.00000000E+00  0.00000000E+00
  0.00000000E+00  0.00000000E+00  0.00000000E+00
  0.00000000E+00  0.00000000E+00  0.00000000E+00
  0.00000000E+00  0.00000000E+00  0.00000000E+00
  0.00000000E+00  0.00000000E+00  0.00000000E+00
  0.00000000E+00  0.00000000E+00  0.00000000E+00
  0.00000000E+00  0.00000000E+00  0.00000000E+00
  0.00000000E+00  0.00000000E+00  0.00000000E+00
  0.00000000E+00  0.00000000E+00  0.00000000E+00
  0.00000000E+00  0.00000000E+00  0.00000000E+00
  0.00000000E+00  0.00000000E+00  0.00000000E+00
  0.00000000E+00  0.00000000E+00  0.00000000E+00
  0.00000000E+00  0.00000000E+00  0.00000000E+00
  0.00000000E+00  0.00000000E+00  0.00000000E+00
  0.00000000E+00  0.00000000E+00  0.00000000E+00
  0.00000000E+00  0.00000000E+00  0.00000000E+00
  0.00000000E+00  0.00000000E+00  0.00000000E+00
  0.00000000E+00  0.00000000E+00  0.00000000E+00
  0.00000000E+00  0.00000000E+00  0.00000000E+00
  0.00000000E+00  0.00000000E+00  0.00000000E+00
  0.00000000E+00  0.00000000E+00  0.00000000E+00
  0.00000000E+00  0.00000000E+00  0.00000000E+00
  0.00000000E+00  0.00000000E+00  0.00000000E+00
  0.00000000E+00  0.00000000E+00  0.00000000E+00
  0.00000000E+00  0.00000000E+00  0.00000000E+00
  0.00000000E+00  0.00000000E+00  0.00000000E+00
  0.00000000E+00  0.00000000E+00  0.00000000E+00
  0.00000000E+00  0.00000000E+00  0.00000000E+00
  0.00000000E+00  0.00000000E+00  0.00000000E+00
  0.00000000E+00  0.00000000E+00  0.00000000E+00
  0.00000000E+00  0.00000000E+00  0.00000000E+00
  0.00000000E+00  0.00000000E+00  0.00000000E+00
  0.00000000E+00  0.00000000E+00  0.00000000E+00
  0.00000000E+00  0.00000000E+00  0.00000000E+00
  0.00000000E+00  0.00000000E+00  0.00000000E+00
  0.00000000E+00  0.00000000E+00  0.00000000E+00
  0.00000000E+00  0.00000000E+00  0.00000000E+00
  0.00000000E+00  0.00000000E+00  0.00000000E+00
  0.00000000E+00  0.00000000E+00  0.00000000E+00
  0.00000000E+00  0.00000000E+00  0.00000000E+00
  0.00000000E+00  0.00000000E+00  0.00000000E+00
  0.00000000E+00  0.00000000E+00  0.00000000E+00
  0.00000000E+00  0.00000000E+00  0.00000000E+00
