Li27 La12 Zr8 O49
1.0
-6.595783 6.342608 6.595860
6.595689 -6.342758 6.595947
6.595814 6.342694 -6.595741
Li La Zr O
27 12 8 49
direct
0.390215 0.658103 0.384219 Li
0.367766 0.241474 0.622212 Li
0.880071 0.489976 0.715765 Li
0.772421 0.001944 0.110222 Li
0.212762 0.992955 0.886037 Li
0.867740 0.241464 0.122234 Li
0.211205 0.989912 0.384487 Li
0.455095 0.244408 0.066619 Li
0.095235 0.480953 0.266390 Li
0.761957 0.980967 0.599734 Li
0.562308 0.744437 0.959670 Li
0.117761 0.741431 0.872223 Li
0.103967 0.822698 0.110000 Li
0.274349 0.660250 0.777225 Li
0.381586 0.492992 0.717269 Li
0.676323 0.384398 0.427860 Li
0.030460 0.098531 0.787948 Li
0.713071 0.824758 0.228149 Li
0.809305 0.238490 0.706645 Li
0.879761 0.158126 0.894755 Li
0.723550 0.324756 0.217548 Li
0.605791 0.501928 0.276910 Li
0.283261 0.598455 0.534797 Li
0.923301 0.884343 0.180810 Li
0.272720 0.160241 0.778734 Li
0.202219 0.738520 0.313696 Li
0.605580 0.322691 0.608484 Li
0.242753 0.361234 0.117012 La
0.742741 0.121674 0.377423 La
0.117980 0.241423 0.372471 La
0.368442 0.117161 0.247225 La
0.367513 0.741475 0.121947 La
0.117072 0.365770 0.747242 La
0.742753 0.617149 0.872926 La
0.242751 0.865774 0.621522 La
0.868019 0.741471 0.622522 La
0.612510 0.861219 0.747199 La
0.617496 0.241472 0.871965 La
0.872994 0.621660 0.247232 La
0.992235 0.990528 0.996920 Zr
0.492231 0.991341 0.497554 Zr
0.493249 0.491635 0.996839 Zr
0.993301 0.492334 0.497646 Zr
0.492422 0.490559 0.496754 Zr
0.492342 0.991622 0.997687 Zr
0.993153 0.992352 0.497834 Zr
0.993112 0.491318 0.996682 Zr
0.470990 0.369553 0.294502 O
0.573546 0.172348 0.199906 O
0.014595 0.310519 0.897175 O
0.911910 0.113387 0.597333 O
0.284629 0.469601 0.376147 O
0.378387 0.289179 0.475335 O
0.591937 0.904366 0.118204 O
0.173182 0.193677 0.585189 O
0.200876 0.578527 0.183488 O
0.312319 0.899002 0.019027 O
0.893516 0.013220 0.310973 O
0.107090 0.583882 0.909230 O
0.108139 0.009238 0.205430 O
0.302392 0.898743 0.289080 O
0.183152 0.473689 0.594895 O
0.377376 0.584243 0.899609 O
0.011578 0.192169 0.109044 O
0.197576 0.114656 0.028463 O
0.581793 0.898631 0.385391 O
0.287864 0.317840 0.915609 O
0.903771 0.290645 0.315346 O
0.584726 0.165122 0.465907 O
0.473849 0.584380 0.179108 O
0.900732 0.368203 0.578878 O
0.524052 0.614765 0.702161 O
0.411097 0.817855 0.792257 O
0.961538 0.665118 0.089275 O
0.074366 0.868153 0.405232 O
0.700940 0.509247 0.612693 O
0.604507 0.692216 0.516116 O
0.395073 0.084210 0.881786 O
0.810849 0.790668 0.408297 O
0.784635 0.398731 0.806876 O
0.674640 0.084386 0.978339 O
0.090388 0.973687 0.687640 O
0.881033 0.398602 0.086242 O
0.871727 0.969594 0.789147 O
0.679063 0.078530 0.705297 O
0.806433 0.513195 0.397934 O
0.613763 0.404351 0.096380 O
0.970905 0.789158 0.882926 O
0.789958 0.869508 0.975405 O
0.404893 0.084006 0.611608 O
0.695507 0.672397 0.078115 O
0.080600 0.693698 0.677606 O
0.392673 0.810558 0.518961 O
0.514614 0.399049 0.816814 O
0.092904 0.613328 0.416428 O
0.617725 0.741448 0.372246 O
