Li28 La12 Zr8 O48                       
   1.00000000000000     
    -6.5430222807781666    6.2921191444772786    6.5414929686981820
     6.5415064013326862   -6.2938664165088358    6.5416936108756643
     6.5417453063274351    6.2924429181517336   -6.5429119705079559
   Li   La   Zr   O 
    28    12     8    48
Direct
  0.3900473848244701  0.6578147538518664  0.3838234876416493
  0.3676633271693532  0.2414513947982257  0.6221266706970994
  0.8793902625878331  0.4894869327975258  0.7154847160928810
  0.6176991741667877  0.7414068787814116  0.3722334019959632
  0.7724516410042597  0.0020155325999340  0.1106437670178266
  0.2128540554035467  0.9935888801942383  0.8857092630413490
  0.8675603132627856  0.2413758577682685  0.1221786107411660
  0.2109661542415822  0.9894045301084802  0.3837959659110126
  0.4557395948369845  0.2446187424233131  0.0680041210220281
  0.0953558673131099  0.4805817202386606  0.2661420694291152
  0.7617935738523514  0.9807039460326124  0.5998766723284774
  0.5634502261753340  0.7445868797309885  0.9603381766221943
  0.1177760187633723  0.7414933007819471  0.8722241153533759
  0.1042596124192201  0.8229831842212931  0.1106046701311740
  0.2746989903331780  0.6598840768153167  0.7770283800191464
  0.3812752323484645  0.4934505333808730  0.7172851481794424
  0.6752160642753111  0.3838161626528063  0.4264972548206671
  0.0296766247144475  0.0990873392185918  0.7873878285363176
  0.7130426293893137  0.8251214442699890  0.2282811559046820
  0.8101574917547580  0.2381951495641914  0.7072381506267291
  0.8795003503558974  0.1580148086876960  0.8948435644396753
  0.7236267334831155  0.3251187770418795  0.2174834953125782
  0.6061597411981552  0.5021227770762167  0.2769479974755455
  0.2828138009443606  0.5991245328340540  0.5339952929367584
  0.9221499800072621  0.8837188803523404  0.1797661560004471
  0.2726525554784089  0.1599522316825670  0.7790306548181860
  0.2025570862054025  0.7381778737742763  0.3147016790921811
  0.6062537303108542  0.3230729948953979  0.6087611604520475
  0.2427927374249421  0.3612860107859390  0.1170269590002277
  0.7427778582886617  0.1216852954423828  0.3774633930107143
  0.1179558848363698  0.2414403974746193  0.3724076063441188
  0.3682313373325883  0.1169132730048617  0.2472204509304916
  0.3675747957829287  0.7414777062553952  0.1220137799956760
  0.1172676208802486  0.3659633461794272  0.7472085656025484
  0.7427599967290632  0.6169260224127200  0.8727043702027260
  0.2427568125902582  0.8659839276490402  0.6217368930668030
  0.8679907185048705  0.7414542861073770  0.6224345234227542
  0.6125781297745050  0.8612686571802115  0.7472404373989008
  0.6174768301801734  0.2414279937993058  0.8719941482761016
  0.8729459004532600  0.6216047349819434  0.2472086281937749
  0.9922876038499382  0.9905237636451503  0.9968488602939019
  0.4922237435029828  0.9913664717235875  0.4976140400685978
  0.4932188745720296  0.4915199933441130  0.9967480644993003
  0.9933253697116058  0.4923892178008487  0.4976941938750130
  0.4923970817034800  0.4905265446262916  0.4967640277821630
  0.4922348877480687  0.9915230465926754  0.9976629664433645
  0.9932070243235174  0.9923852067209467  0.4977511803581010
  0.9931781920708360  0.4913963467730156  0.9967326002603727
  0.4715737352824760  0.3698313128004500  0.2949122936894497
  0.5734098949676536  0.1725534082507920  0.1995572246743436
  0.0140590405800296  0.3103973508390823  0.8969079086744145
  0.9120485329776500  0.1131055133787413  0.5975751587541112
  0.2848121698350710  0.4695547907575346  0.3761701956934331
  0.3788165792536802  0.2893695213413281  0.4754553241339963
  0.5918324930499566  0.9044919735120800  0.1182275706951259
  0.1731035264305163  0.1936238017218983  0.5853668061994739
  0.2007646787829103  0.5783684315937947  0.1833740057990170
  0.3123858439177809  0.8993191882859151  0.0189981506379056
  0.8935716085731755  0.0132561658387758  0.3110817932362835
  0.1067457509253558  0.5837281050041767  0.9092018311846388
  0.1078920314238658  0.0090890763939058  0.2052349569992202
  0.3024348302100748  0.8985542713358825  0.2892244048204944
  0.1831430067538591  0.4738301677708989  0.5946315914502378
  0.3776925741422446  0.5843284171436380  0.8997435245301588
  0.0112451140440157  0.1919329719544649  0.1085134668649204
  0.1971701616502628  0.1143738417013367  0.0282334616445254
  0.5819361692804534  0.8986936805626229  0.3859756428879422
  0.2883577949667639  0.3179942798059017  0.9156685542035845
  0.9035265981273426  0.2909335121220948  0.3153049169225710
  0.5847481941208628  0.1648875336035900  0.4663663518400512
  0.4742055615683469  0.5842217908710481  0.1791335529516545
  0.9009698832637483  0.3686648196450619  0.5788221888816452
  0.5238246687308958  0.6143001965323833  0.7016613547544566
  0.4111795799946876  0.8180225160039285  0.7927439920698731
  0.9618410806064546  0.6648952681218034  0.0891635150124443
  0.0742730676256116  0.8685613939089620  0.4053339546841030
  0.7007873345622500  0.5090751185999167  0.6123089786081550
  0.6040813288837938  0.6919632425303703  0.5158277311314095
  0.3953025030528394  0.0843879079652936  0.8821393641352699
  0.8108118733929288  0.7910597861698818  0.4081098677556696
  0.7847720979190029  0.3985105596360228  0.8068888286299014
  0.6745958662509182  0.0841954552682225  0.9786921510886941
  0.0902033598306886  0.9738589890371117  0.6875664108387269
  0.8814234327797834  0.3987118209791873  0.0864027691794362
  0.8717608555661442  0.9696560508218326  0.7893148422601683
  0.6788248285152321  0.0783651791215263  0.7052868219665882
  0.8067034482629651  0.5133900495149817  0.3980957052965408
  0.6137477750982754  0.4045099204626794  0.0964038580848054
  0.9710349468802519  0.7893737050987824  0.8832875221698444
  0.7904570600071210  0.8698080693465755  0.9759916101867816
  0.4046015014524542  0.0836772033109341  0.6111628499710449
  0.6951194932389697  0.6725629802464539  0.0779814587735004
  0.0809480700666967  0.6936080066437711  0.6775703064275262
  0.3923151326184424  0.8103415407240817  0.5184224564879187
  0.5144865748565550  0.3992625575439419  0.8168654047410513
  0.0931457285986994  0.6130161971015369  0.4164820527115154
 
  0.00000000E+00  0.00000000E+00  0.00000000E+00
  0.00000000E+00  0.00000000E+00  0.00000000E+00
  0.00000000E+00  0.00000000E+00  0.00000000E+00
  0.00000000E+00  0.00000000E+00  0.00000000E+00
  0.00000000E+00  0.00000000E+00  0.00000000E+00
  0.00000000E+00  0.00000000E+00  0.00000000E+00
  0.00000000E+00  0.00000000E+00  0.00000000E+00
  0.00000000E+00  0.00000000E+00  0.00000000E+00
  0.00000000E+00  0.00000000E+00  0.00000000E+00
  0.00000000E+00  0.00000000E+00  0.00000000E+00
  0.00000000E+00  0.00000000E+00  0.00000000E+00
  0.00000000E+00  0.00000000E+00  0.00000000E+00
  0.00000000E+00  0.00000000E+00  0.00000000E+00
  0.00000000E+00  0.00000000E+00  0.00000000E+00
  0.00000000E+00  0.00000000E+00  0.00000000E+00
  0.00000000E+00  0.00000000E+00  0.00000000E+00
  0.00000000E+00  0.00000000E+00  0.00000000E+00
  0.00000000E+00  0.00000000E+00  0.00000000E+00
  0.00000000E+00  0.00000000E+00  0.00000000E+00
  0.00000000E+00  0.00000000E+00  0.00000000E+00
  0.00000000E+00  0.00000000E+00  0.00000000E+00
  0.00000000E+00  0.00000000E+00  0.00000000E+00
  0.00000000E+00  0.00000000E+00  0.00000000E+00
  0.00000000E+00  0.00000000E+00  0.00000000E+00
  0.00000000E+00  0.00000000E+00  0.00000000E+00
  0.00000000E+00  0.00000000E+00  0.00000000E+00
  0.00000000E+00  0.00000000E+00  0.00000000E+00
  0.00000000E+00  0.00000000E+00  0.00000000E+00
  0.00000000E+00  0.00000000E+00  0.00000000E+00
  0.00000000E+00  0.00000000E+00  0.00000000E+00
  0.00000000E+00  0.00000000E+00  0.00000000E+00
  0.00000000E+00  0.00000000E+00  0.00000000E+00
  0.00000000E+00  0.00000000E+00  0.00000000E+00
  0.00000000E+00  0.00000000E+00  0.00000000E+00
  0.00000000E+00  0.00000000E+00  0.00000000E+00
  0.00000000E+00  0.00000000E+00  0.00000000E+00
  0.00000000E+00  0.00000000E+00  0.00000000E+00
  0.00000000E+00  0.00000000E+00  0.00000000E+00
  0.00000000E+00  0.00000000E+00  0.00000000E+00
  0.00000000E+00  0.00000000E+00  0.00000000E+00
  0.00000000E+00  0.00000000E+00  0.00000000E+00
  0.00000000E+00  0.00000000E+00  0.00000000E+00
  0.00000000E+00  0.00000000E+00  0.00000000E+00
  0.00000000E+00  0.00000000E+00  0.00000000E+00
  0.00000000E+00  0.00000000E+00  0.00000000E+00
  0.00000000E+00  0.00000000E+00  0.00000000E+00
  0.00000000E+00  0.00000000E+00  0.00000000E+00
  0.00000000E+00  0.00000000E+00  0.00000000E+00
  0.00000000E+00  0.00000000E+00  0.00000000E+00
  0.00000000E+00  0.00000000E+00  0.00000000E+00
  0.00000000E+00  0.00000000E+00  0.00000000E+00
  0.00000000E+00  0.00000000E+00  0.00000000E+00
  0.00000000E+00  0.00000000E+00  0.00000000E+00
  0.00000000E+00  0.00000000E+00  0.00000000E+00
  0.00000000E+00  0.00000000E+00  0.00000000E+00
  0.00000000E+00  0.00000000E+00  0.00000000E+00
  0.00000000E+00  0.00000000E+00  0.00000000E+00
  0.00000000E+00  0.00000000E+00  0.00000000E+00
  0.00000000E+00  0.00000000E+00  0.00000000E+00
  0.00000000E+00  0.00000000E+00  0.00000000E+00
  0.00000000E+00  0.00000000E+00  0.00000000E+00
  0.00000000E+00  0.00000000E+00  0.00000000E+00
  0.00000000E+00  0.00000000E+00  0.00000000E+00
  0.00000000E+00  0.00000000E+00  0.00000000E+00
  0.00000000E+00  0.00000000E+00  0.00000000E+00
  0.00000000E+00  0.00000000E+00  0.00000000E+00
  0.00000000E+00  0.00000000E+00  0.00000000E+00
  0.00000000E+00  0.00000000E+00  0.00000000E+00
  0.00000000E+00  0.00000000E+00  0.00000000E+00
  0.00000000E+00  0.00000000E+00  0.00000000E+00
  0.00000000E+00  0.00000000E+00  0.00000000E+00
  0.00000000E+00  0.00000000E+00  0.00000000E+00
  0.00000000E+00  0.00000000E+00  0.00000000E+00
  0.00000000E+00  0.00000000E+00  0.00000000E+00
  0.00000000E+00  0.00000000E+00  0.00000000E+00
  0.00000000E+00  0.00000000E+00  0.00000000E+00
  0.00000000E+00  0.00000000E+00  0.00000000E+00
  0.00000000E+00  0.00000000E+00  0.00000000E+00
  0.00000000E+00  0.00000000E+00  0.00000000E+00
  0.00000000E+00  0.00000000E+00  0.00000000E+00
  0.00000000E+00  0.00000000E+00  0.00000000E+00
  0.00000000E+00  0.00000000E+00  0.00000000E+00
  0.00000000E+00  0.00000000E+00  0.00000000E+00
  0.00000000E+00  0.00000000E+00  0.00000000E+00
  0.00000000E+00  0.00000000E+00  0.00000000E+00
  0.00000000E+00  0.00000000E+00  0.00000000E+00
  0.00000000E+00  0.00000000E+00  0.00000000E+00
  0.00000000E+00  0.00000000E+00  0.00000000E+00
  0.00000000E+00  0.00000000E+00  0.00000000E+00
  0.00000000E+00  0.00000000E+00  0.00000000E+00
  0.00000000E+00  0.00000000E+00  0.00000000E+00
  0.00000000E+00  0.00000000E+00  0.00000000E+00
  0.00000000E+00  0.00000000E+00  0.00000000E+00
  0.00000000E+00  0.00000000E+00  0.00000000E+00
  0.00000000E+00  0.00000000E+00  0.00000000E+00
  0.00000000E+00  0.00000000E+00  0.00000000E+00
