SYSTEM = static
ISTART = 1
ICHARG = 1
ENCUT  = 520
PREC   = Accurate
EDIFF  = 1E-6
ISMEAR = -5      # Tetrahedron method (from MP - more accurate for static)
NSW    = 0
NELM   = 100     # Max electronic steps
LREAL  = Auto
ALGO   = Normal
LASPH  = .TRUE.
LMAXMIX = 4      # Better charge mixing for d-elements
IVDW   = 12      # D3(BJ) dispersion correction - CRITICAL!
ISPIN  = 2       # Spin polarization (safety check)
LORBIT = 11
NEDOS  = 2000

