Na16 Zn8 S16                            
   1.0000000000000000     
     6.7514261710045842   -0.0000000000000000    0.0000000000000004
    -0.0000000000000004    7.1523699618533412    0.0000000000000004
    -0.0000000000000000   -0.0000000000000000   18.6829421133240743
   Na   Zn   S 
    16     8    16
Direct
  0.9892542626404648  0.6856448390348788  0.0685973384807568
  0.0107457373595352  0.8143551609651212  0.5685973384807568
  0.5107457373595352  0.1856448390348788  0.9314026615192432
  0.4892542626404648  0.3143551609651212  0.4314026615192432
  0.0107457373595352  0.3143551609651212  0.9314026615192432
  0.9892542626404648  0.1856448390348788  0.4314026615192432
  0.4892542626404648  0.8143551609651212  0.0685973384807568
  0.5107457373595352  0.6856448390348788  0.5685973384807568
  0.6782535182893881  0.5454857005632832  0.2005817205765865
  0.3217464817106119  0.9545142994367168  0.7005817205765865
  0.8217464817106119  0.0454857005632832  0.7994182794234135
  0.1782535182893881  0.4545142994367168  0.2994182794234135
  0.3217464817106119  0.4545142994367168  0.7994182794234135
  0.6782535182893881  0.0454857005632832  0.2994182794234135
  0.1782535182893881  0.9545142994367168  0.2005817205765865
  0.8217464817106119  0.5454857005632832  0.7005817205765865
  0.1336142012531525  0.8791225487650962  0.9209005155847620
  0.8663857987468475  0.6208774512349038  0.4209005155847620
  0.3663857987468475  0.3791225487650962  0.0790994844152380
  0.6336142012531525  0.1208774512349038  0.5790994844152380
  0.8663857987468475  0.1208774512349038  0.0790994844152380
  0.1336142012531525  0.3791225487650962  0.5790994844152380
  0.6336142012531525  0.6208774512349038  0.9209005155847620
  0.3663857987468475  0.8791225487650962  0.4209005155847620
  0.2075713671411137  0.1048174169798060  0.0478340614816517
  0.7924286328588863  0.3951825830201940  0.5478340614816517
  0.2924286328588863  0.6048174169798060  0.9521659385183483
  0.7075713671411137  0.8951825830201940  0.4521659385183483
  0.7924286328588863  0.8951825830201940  0.9521659385183483
  0.2075713671411137  0.6048174169798060  0.4521659385183483
  0.7075713671411137  0.3951825830201940  0.0478340614816517
  0.2924286328588863  0.1048174169798060  0.5478340614816517
  0.2755214975284517  0.5779845643854031  0.1645864445412201
  0.7244785024715483  0.9220154356145969  0.6661921873529266
  0.2244785024715483  0.0779845643854031  0.8338078126470734
  0.7755214975284517  0.4220154356145969  0.3338078126470734
  0.7244785024715483  0.4220154356145969  0.8338078126470734
  0.2755214975284517  0.0779845643854031  0.3338078126470734
  0.7755214975284517  0.9220154356145969  0.1661921873529266
  0.2244785024715483  0.5779845643854031  0.6661921873529266

  0.00000000E+00  0.00000000E+00  0.00000000E+00
  0.00000000E+00  0.00000000E+00  0.00000000E+00
  0.00000000E+00  0.00000000E+00  0.00000000E+00
  0.00000000E+00  0.00000000E+00  0.00000000E+00
  0.00000000E+00  0.00000000E+00  0.00000000E+00
  0.00000000E+00  0.00000000E+00  0.00000000E+00
  0.00000000E+00  0.00000000E+00  0.00000000E+00
  0.00000000E+00  0.00000000E+00  0.00000000E+00
  0.00000000E+00  0.00000000E+00  0.00000000E+00
  0.00000000E+00  0.00000000E+00  0.00000000E+00
  0.00000000E+00  0.00000000E+00  0.00000000E+00
  0.00000000E+00  0.00000000E+00  0.00000000E+00
  0.00000000E+00  0.00000000E+00  0.00000000E+00
  0.00000000E+00  0.00000000E+00  0.00000000E+00
  0.00000000E+00  0.00000000E+00  0.00000000E+00
  0.00000000E+00  0.00000000E+00  0.00000000E+00
  0.00000000E+00  0.00000000E+00  0.00000000E+00
  0.00000000E+00  0.00000000E+00  0.00000000E+00
  0.00000000E+00  0.00000000E+00  0.00000000E+00
  0.00000000E+00  0.00000000E+00  0.00000000E+00
  0.00000000E+00  0.00000000E+00  0.00000000E+00
  0.00000000E+00  0.00000000E+00  0.00000000E+00
  0.00000000E+00  0.00000000E+00  0.00000000E+00
  0.00000000E+00  0.00000000E+00  0.00000000E+00
  0.00000000E+00  0.00000000E+00  0.00000000E+00
  0.00000000E+00  0.00000000E+00  0.00000000E+00
  0.00000000E+00  0.00000000E+00  0.00000000E+00
  0.00000000E+00  0.00000000E+00  0.00000000E+00
  0.00000000E+00  0.00000000E+00  0.00000000E+00
  0.00000000E+00  0.00000000E+00  0.00000000E+00
  0.00000000E+00  0.00000000E+00  0.00000000E+00
  0.00000000E+00  0.00000000E+00  0.00000000E+00
  0.00000000E+00  0.00000000E+00  0.00000000E+00
  0.00000000E+00  0.00000000E+00  0.00000000E+00
  0.00000000E+00  0.00000000E+00  0.00000000E+00
  0.00000000E+00  0.00000000E+00  0.00000000E+00
  0.00000000E+00  0.00000000E+00  0.00000000E+00
  0.00000000E+00  0.00000000E+00  0.00000000E+00
  0.00000000E+00  0.00000000E+00  0.00000000E+00
  0.00000000E+00  0.00000000E+00  0.00000000E+00
