Na16 Zn8 S16
1.0
   6.7556339999999997    0.0000000000000000    0.0000000000000004
  -0.0000000000000004    7.1649360000000000    0.0000000000000004
   0.0000000000000000    0.0000000000000000   18.6755950000000013
Na Zn S
16 8 16
direct
   0.9893240000000000    0.6857000000000000    0.0684970000000000 Na
   0.0106760000000000    0.8143000000000000    0.5684970000000000 Na
   0.5106760000000000    0.1857000000000000    0.9315030000000000 Na
   0.4893240000000000    0.3143000000000000    0.4315030000000000 Na
   0.0106760000000000    0.3143000000000000    0.9315030000000000 Na
   0.9893240000000000    0.1857000000000000    0.4315030000000000 Na
   0.4893240000000000    0.8143000000000000    0.0684970000000000 Na
   0.5106760000000000    0.6857000000000000    0.5684970000000000 Na
   0.6779170000000000    0.5440530000000000    0.2006000000000000 Na
   0.3220830000000000    0.9559470000000000    0.7006000000000000 Na
   0.8220830000000000    0.0440530000000000    0.7994000000000000 Na
   0.1779170000000000    0.4559470000000000    0.2994000000000000 Na
   0.3220830000000000    0.4559470000000000    0.7994000000000000 Na
   0.6779170000000000    0.0440530000000000    0.2994000000000000 Na
   0.1779170000000000    0.9559470000000000    0.2006000000000000 Na
   0.8220830000000000    0.5440530000000000    0.7006000000000000 Na
   0.1335250000000000    0.8785600000000000    0.9210890000000000 Zn
   0.8664750000000000    0.6214400000000000    0.4210890000000000 Zn
   0.3664750000000000    0.3785600000000000    0.0789110000000000 Zn
   0.6335250000000000    0.1214400000000000    0.5789110000000000 Zn
   0.8664750000000000    0.1214400000000000    0.0789110000000000 Zn
   0.1335250000000000    0.3785600000000000    0.5789110000000000 Zn
   0.6335250000000000    0.6214400000000000    0.9210890000000000 Zn
   0.3664750000000000    0.8785600000000000    0.4210890000000000 Zn
   0.2078710000000000    0.1051940000000000    0.0479090000000000 S
   0.7921290000000000    0.3948060000000000    0.5479090000000000 S
   0.2921290000000000    0.6051940000000000    0.9520910000000000 S
   0.7078710000000000    0.8948060000000000    0.4520910000000000 S
   0.7921290000000000    0.8948060000000000    0.9520910000000000 S
   0.2078710000000000    0.6051940000000000    0.4520910000000000 S
   0.7078710000000000    0.3948060000000000    0.0479090000000000 S
   0.2921290000000000    0.1051940000000000    0.5479090000000000 S
   0.2752960000000000    0.5776740000000000    0.1661930000000000 S
   0.7247040000000000    0.9223260000000000    0.6661930000000000 S
   0.2247040000000000    0.0776740000000000    0.8338070000000000 S
   0.7752960000000000    0.4223260000000000    0.3338070000000000 S
   0.7247040000000000    0.4223260000000000    0.8338070000000000 S
   0.2752960000000000    0.0776740000000000    0.3338070000000000 S
   0.7752960000000000    0.9223260000000000    0.1661930000000000 S
   0.2247040000000000    0.5776740000000000    0.6661930000000000 S
