Na Al S                                 
   1.0000000000000000     
    12.1828203277415312    0.0000000000000000    0.0000000000000007
    -0.0000000000000005    7.5674693205415418    1.1970639402156102
     0.0000000000000000    0.0113082934473333   13.7304524371335805
   Na   Al   S 
    23     8    24
Direct
  0.9737266986862707  0.0092718619180303  0.8004278552182669
  0.8637098646625105  0.6271977783896503  0.9800189477129777
  0.7855465266505206  0.5455082920863816  0.7500794147921965
  0.7309207543708425  0.9205703614984557  0.5415393337694425
  0.9068034900328570  0.0966013672168629  0.4039807577796921
  0.2427360689738123  0.5708870398969381  0.4963877517554707
  0.8059721714061041  0.5066223864922605  0.2769728286518713
  0.2674705754619850  0.0667978293837734  0.4973691931207966
  0.6527649633698687  0.4501397589063174  0.9620057851511064
  0.4156617793119111  0.3884335977261983  0.6401125800144101
  0.2670365218663733  0.5114699901654092  0.9523713066255866
  0.2580028677479476  0.0082382865751214  0.9515895688852396
  0.7592459477584157  0.4141800272694383  0.5424563275332517
  0.2003368044758673  0.4507429389060107  0.2820838355605702
  0.1638269023123087  0.9473943467312651  0.2360382993514918
  0.5843560422702083  0.6044331474659757  0.3825177334783021
  0.3391540425878645  0.0072404182436685  0.7462693087154690
  0.0717131176091499  0.8938918686876889  0.6461571064103566
  0.1756599081710135  0.4933689381669666  0.7474995879001796
  0.4950440370562390  0.4047745377912690  0.2127394981276964
  0.6914298260989824  0.0253005015725307  0.7578302714696719
  0.5205570995339102  0.5866089128471117  0.7990784771888642
  0.6632979618395609  0.9381658641029276  0.3205817085523108
  0.0073853765417908  0.3182866813612577  0.9607753857471337
  0.0173388483297998  0.2936119074157801  0.6133473253281352
  0.5313991306650081  0.1455550840803710  0.4906779422064815
  0.4816874706732648  0.8127651863864500  0.5899089683957470
  0.5350441683687208  0.1719126735042025  0.8748234115122173
  0.5749199263171221  0.8946083636422770  0.0204547556407917
  0.9601146074427973  0.6648431765211527  0.4818361867226955
  0.9735456033195788  0.7530441427286618  0.8189083914166488
  0.3807927126348005  0.3112296418157285  0.7914395734130295
  0.2667190493150571  0.1117766763399004  0.1203006593908569
  0.4151562286688275  0.3606513765491997  0.4738878497678058
  0.1520807480111515  0.8577407685421718  0.7821535120317975
  0.8830636529871754  0.3505151031021825  0.0955751809240653
  0.6427715685049336  0.7066487304566564  0.1584897450810772
  0.7779988390981032  0.7523491959743609  0.4148128064239529
  0.1028057434809355  0.8931647820776476  0.4925718195784796
  0.3149635229933452  0.7412673908169367  0.6391633808090305
  0.5469675135238603  0.9192531063236729  0.8376875944971545
  0.6543705991648707  0.2890182571020290  0.8371259126254031
  0.7226617922475143  0.0483359626680766  0.1424347517494482
  0.1921125014586664  0.2276659029267805  0.6458682731531624
  0.0219444450305133  0.3711937250170507  0.4774427632403899
  0.5974714268664343  0.6120817614231058  0.6196765792093046
  0.4943137699451299  0.1364862413149837  0.0334820555858428
  0.6643183182673766  0.2464191593706602  0.4294389159174017
  0.8883600463664365  0.0805575296088463  0.6202650148502471
  0.9702417572479334  0.6763218743783810  0.6087280095563230
  0.0076200016696433  0.3815364629560989  0.7650083259630307
  0.7677582571241999  0.8533608171817022  0.8223482693141051
  0.5389303722812073  0.0755207589909261  0.6270234126853396
  0.4210252587592862  0.7209615522853312  0.1113437116330971
  0.4840221395503121  0.8988213330607593  0.4577218493612278

             NaN             NaN             NaN
             NaN             NaN             NaN
             NaN             NaN             NaN
             NaN             NaN             NaN
             NaN             NaN             NaN
             NaN             NaN             NaN
             NaN             NaN             NaN
             NaN             NaN             NaN
             NaN             NaN             NaN
             NaN             NaN             NaN
             NaN             NaN             NaN
             NaN             NaN             NaN
             NaN             NaN             NaN
             NaN             NaN             NaN
             NaN             NaN             NaN
             NaN             NaN             NaN
             NaN             NaN             NaN
             NaN             NaN             NaN
             NaN             NaN             NaN
             NaN             NaN             NaN
             NaN             NaN             NaN
             NaN             NaN             NaN
             NaN             NaN             NaN
             NaN             NaN             NaN
             NaN             NaN             NaN
             NaN             NaN             NaN
             NaN             NaN             NaN
             NaN             NaN             NaN
             NaN             NaN             NaN
             NaN             NaN             NaN
             NaN             NaN             NaN
             NaN             NaN             NaN
             NaN             NaN             NaN
             NaN             NaN             NaN
             NaN             NaN             NaN
             NaN             NaN             NaN
             NaN             NaN             NaN
             NaN             NaN             NaN
             NaN             NaN             NaN
             NaN             NaN             NaN
             NaN             NaN             NaN
             NaN             NaN             NaN
             NaN             NaN             NaN
             NaN             NaN             NaN
             NaN             NaN             NaN
             NaN             NaN             NaN
             NaN             NaN             NaN
             NaN             NaN             NaN
             NaN             NaN             NaN
             NaN             NaN             NaN
             NaN             NaN             NaN
             NaN             NaN             NaN
             NaN             NaN             NaN
             NaN             NaN             NaN
             NaN             NaN             NaN
