Na3AlS3 bottleneck NEB image 04
  1.0
     12.1828203277415312      0.0000000000000000      0.0000000000000007
     -0.0000000000000005      7.5674693205415418      1.1970639402156102
      0.0000000000000000      0.0113082934473333     13.7304524371335805
  Na  Al  S
  23  8  24
Direct
  0.9170308401559560  0.0829741490701400  0.8684561072611363
  0.7796068747015246  0.2080478057903659  0.8984187943605662
  0.7854722722385999  0.6934429265778178  0.6593265260620126
  0.8061938182403904  0.0335924363605460  0.4403277399057234
  0.0664165336497387  0.2647274534012163  0.3940494882622183
  0.0817137897714956  0.5238294067577117  0.3878246542460474
  0.9903119042680317  0.3077914590953556  0.3327138377744088
  0.4512759041974627  0.2281167572850314  0.2896365556626479
  0.4622912785227664  0.4175941118655660  0.6883703738242287
  0.2566816320333815  0.5086600044174048  0.9854588017710397
  0.2423697170889147  0.0076855927988980  0.9855369186579734
  0.7551964816212368  0.4596130060507662  0.5124014177524638
  0.1813581233721508  0.4914412978242912  0.2443998621307176
  0.0297365062920499  0.9132406115264139  0.1793599326596360
  0.5789460885942821  0.6113611468051422  0.3413054602718637
  0.3231628974145034  0.9913995107862523  0.7495909196717920
  0.0493329792231995  0.9052983329820369  0.6774553971977263
  0.3167128000972156  0.9930655263804120  0.2443590834164362
  0.1775279195081458  0.4875260751724551  0.7497343202526587
  0.4708766331375604  0.4171576214615930  0.1826287769104540
  0.6801973709518231  0.0069102923232983  0.7476741780173332
  0.6129145558873972  0.5791134428967103  0.8993945275578136
  0.6768400497647299  0.0121592627858257  0.2354269172234965
  0.0053675891884774  0.3295207552440754  0.0707120359699073
  0.0076837129140528  0.3244055543099733  0.5684472911293178
  0.5069849302886622  0.1753728359166022  0.4254687474302257
  0.4901388270927629  0.8282491532014987  0.5692670073290781
  0.5041302625206611  0.1674010418077675  0.9233378388017918
  0.4924732212306118  0.8320802782617489  0.0718675933286616
  0.9893166894075295  0.6719999980615264  0.4248854787892494
  0.9927600363629482  0.6672576471909143  0.9232804231118816
  0.3507179195349044  0.2926774330853736  0.8575805245960706
  0.1659242729723280  0.2134779299066999  0.1234917912553143
  0.3606535474643757  0.3257109230357043  0.3617053781035010
  0.1452460773018606  0.7956739342177754  0.8565835445173539
  0.9986898946979736  0.6193463805891787  0.0927579001765711
  0.6377614533306756  0.6880081860340509  0.1425941290879267
  0.8281201060490827  0.7757923169392360  0.3648511826709015
  0.1352691892510308  0.8254412735597196  0.3623914900746500
  0.3312553442985773  0.7179259332271515  0.6293002549461463
  0.5024648320093752  0.8752496882682257  0.9029082301549615
  0.6580645205143298  0.2948208019219035  0.8619905975091686
  0.8617446234898644  0.1827844577313283  0.1424030721309198
  0.1668449504452307  0.2161879359746609  0.6282974813080933
  0.0107058753773510  0.3870824284765476  0.3985814518513886
  0.6392165138846218  0.6766915280766505  0.6256604996259643
  0.5001955025807877  0.1227547562490353  0.0929328277070071
  0.6683063083302879  0.2781914915051975  0.3652969571420134
  0.8602239116278282  0.1713335130493594  0.6272348679821365
  0.9880802928377647  0.6114091877627673  0.5944443965007123
  0.9960522797449205  0.3762167390868165  0.9014975452060259
  0.8384111431533707  0.7964220101281307  0.8642544912334845
  0.5080002431755123  0.1160220094804197  0.5950018211160899
  0.3322114431690306  0.7147138597262015  0.1242826236732030
  0.4852656076836568  0.8899501222796998  0.3993428364725792
