Na Al S 
 1.0000000000000000
    12.1828203277415312    0.0000000000000000    0.0000000000000007
    -0.0000000000000005    7.5674693205415418    1.1970639402156102
     0.0000000000000000    0.0113082934473333   13.7304524371335805
 Na  Al  S  
  23   8  24
Direct
  0.9292245366861779  0.0691362906653570  0.8765977605572134
  0.7521324238792761  0.2315211784295678 -0.0223647600807628
  0.8457863261479522  0.5010322890831582  0.7477636206291863
  0.7609793293680945  1.0071930044397455  0.4969565680346749
  0.9338132357613944  0.0955501709415205  0.3388989588327597
  0.2260059357849658  0.5384913156484772  0.4728828931980279
  0.8308709860103519  0.5083666351714844  0.2290153418766996
  0.2410913058716573  0.0065606995245926  0.4874249076594676
  0.5004708700532171  0.2315846160536944  0.7454887790156876
  0.2387019599636510  0.5063925297675839  0.9983243332696152
  0.2303002905904407 -0.0169445317994073  0.9949039713581660
  0.8289730691920573  0.4192031278471148  0.4937194391571446
  0.1092501350064139  0.5416040179356180  0.2526886241624812
  0.0248668087642864  0.9275984542252981  0.1760013919555625
  0.5862958390471805  0.6354527895801594  0.2905525170525554
  0.2842116887810731  0.4052467365565953  0.7463460918085296
  0.0388365920389782  0.9326206727165399  0.6746281857022481
  0.3053232906944358  0.3475755861491936  0.2031238269165508
  0.0653737421171840  0.5476357363243449  0.7463952120736257
  0.5393700819380192  0.4203140273179622  0.1499805327831653
  0.6960361710490726 -0.0392252455488573  0.7465582714180073
  0.6299889095296378  0.5408377017559229  0.8671315912415895
  0.6806317268478715 -0.0023552781798065  0.2325814791882103
 -0.0079375859166011  0.3345370615117871  0.0649772540200824
 -0.0046183513830707  0.3221588429652693  0.5663904803411897
  0.5136067200245473  0.1107960474629121  0.4163459133520779
  0.4471578116969762  1.0094507283296827  0.5637053269523968
  0.5214806039583936  0.1088772945392774  0.9512463778985767
  0.4978211488909881  0.8450333269576681  0.0623417349750768
  0.9974862934032993  0.6813994129009520  0.4215191060205147
  0.6011895931754527  0.7073495222437968  1.0956817118305362
  0.3665281257319956  0.2300588371885294  0.9271738882825666
  0.1314166875182381  0.1693406754080114  0.1016159533695926
  0.3602973360793881  0.2706571863701929  0.4057545143813831
  0.1394858702950429  0.8079837464503593  0.8631290320686760
 -0.0127017606767637  0.6286065212852435  0.0822726807903054
  0.6543231879071162  0.7141794730120451  0.1200815292838924
  0.8381003330032618  0.7858081827224720  0.3570588708268893
  0.1311673220521944  0.8396071682423838  0.3611785588476609
  0.2960061629279671  0.8164977339225837  0.6145162376696931
  0.4477755392165778  1.0265070980458944  0.8531292448491121
  0.6826153599186694  0.2087855876978749  0.8795179388694545
  0.8732780220985952  0.1767132177461275  0.1489498744351043
  0.1426305526271616  0.1811712716829298  0.6155918333394820
 -0.0026884197016801  0.3794431409829931  0.4038483519265799
  0.7301138124742336  0.8386731539895884  0.6752400143180143
  0.5046693076558540  0.1031307560944359  0.0868700474881906
  0.6788851721699818  0.2500807030976515  0.3512810116350052
  0.8699965242347197  0.1534108670985408  0.6299191155162707
  0.5775465147825665  0.5804179750755561  0.5659599867463833
 -0.0179233804517073  0.3643761795604714  0.9161519170268237
  0.8620971814426927  0.7998612247464602  0.8733055220409126
  0.5027447006147900  0.0220663071001429  0.5981718606664974
  0.3299438593477969  0.7744070208637676  0.1049146387063942
  0.4677662338618723  0.9725626598735652  0.3630628354969488
Cartesian
  0.0000000000000000  0.0000000000000000  0.0000000000000000
  0.0000000000000000  0.0000000000000000  0.0000000000000000
  0.0000000000000000  0.0000000000000000  0.0000000000000000
  0.0000000000000000  0.0000000000000000  0.0000000000000000
  0.0000000000000000  0.0000000000000000  0.0000000000000000
  0.0000000000000000  0.0000000000000000  0.0000000000000000
  0.0000000000000000  0.0000000000000000  0.0000000000000000
  0.0000000000000000  0.0000000000000000  0.0000000000000000
  0.0000000000000000  0.0000000000000000  0.0000000000000000
  0.0000000000000000  0.0000000000000000  0.0000000000000000
  0.0000000000000000  0.0000000000000000  0.0000000000000000
  0.0000000000000000  0.0000000000000000  0.0000000000000000
  0.0000000000000000  0.0000000000000000  0.0000000000000000
  0.0000000000000000  0.0000000000000000  0.0000000000000000
  0.0000000000000000  0.0000000000000000  0.0000000000000000
  0.0000000000000000  0.0000000000000000  0.0000000000000000
  0.0000000000000000  0.0000000000000000  0.0000000000000000
  0.0000000000000000  0.0000000000000000  0.0000000000000000
  0.0000000000000000  0.0000000000000000  0.0000000000000000
  0.0000000000000000  0.0000000000000000  0.0000000000000000
  0.0000000000000000  0.0000000000000000  0.0000000000000000
  0.0000000000000000  0.0000000000000000  0.0000000000000000
  0.0000000000000000  0.0000000000000000  0.0000000000000000
  0.0000000000000000  0.0000000000000000  0.0000000000000000
  0.0000000000000000  0.0000000000000000  0.0000000000000000
  0.0000000000000000  0.0000000000000000  0.0000000000000000
  0.0000000000000000  0.0000000000000000  0.0000000000000000
  0.0000000000000000  0.0000000000000000  0.0000000000000000
  0.0000000000000000  0.0000000000000000  0.0000000000000000
  0.0000000000000000  0.0000000000000000  0.0000000000000000
  0.0000000000000000  0.0000000000000000  0.0000000000000000
  0.0000000000000000  0.0000000000000000  0.0000000000000000
  0.0000000000000000  0.0000000000000000  0.0000000000000000
  0.0000000000000000  0.0000000000000000  0.0000000000000000
  0.0000000000000000  0.0000000000000000  0.0000000000000000
  0.0000000000000000  0.0000000000000000  0.0000000000000000
  0.0000000000000000  0.0000000000000000  0.0000000000000000
  0.0000000000000000  0.0000000000000000  0.0000000000000000
  0.0000000000000000  0.0000000000000000  0.0000000000000000
  0.0000000000000000  0.0000000000000000  0.0000000000000000
  0.0000000000000000  0.0000000000000000  0.0000000000000000
  0.0000000000000000  0.0000000000000000  0.0000000000000000
  0.0000000000000000  0.0000000000000000  0.0000000000000000
  0.0000000000000000  0.0000000000000000  0.0000000000000000
  0.0000000000000000  0.0000000000000000  0.0000000000000000
  0.0000000000000000  0.0000000000000000  0.0000000000000000
  0.0000000000000000  0.0000000000000000  0.0000000000000000
  0.0000000000000000  0.0000000000000000  0.0000000000000000
  0.0000000000000000  0.0000000000000000  0.0000000000000000
  0.0000000000000000  0.0000000000000000  0.0000000000000000
  0.0000000000000000  0.0000000000000000  0.0000000000000000
  0.0000000000000000  0.0000000000000000  0.0000000000000000
  0.0000000000000000  0.0000000000000000  0.0000000000000000
  0.0000000000000000  0.0000000000000000  0.0000000000000000
  0.0000000000000000  0.0000000000000000  0.0000000000000000
