Na Al S 
 1.0000000000000000
    12.1828203277415312   -0.0000000000000000    0.0000000000000007
    -0.0000000000000005    7.5674693205415418    1.1970639402156102
     0.0000000000000000    0.0113082934473333   13.7304524371335805
 Na  Al  S  
  23   8  24
Direct
  0.9737266986862683  0.0092718619180305  0.8004278552182674
  0.8637098646625109  0.6271977783896520 -0.0199810522870202
  0.7855465266505215  0.5455082920863816  0.7500794147921976
  0.7309207543708395  0.9205703614984555  0.5415393337694436
  0.9068034900328560  0.0966013672168663  0.4039807577796916
  0.2427360689738119  0.5708870398969380  0.4963877517554672
  0.8059721714061018  0.5066223864922577  0.2769728286518688
  0.2674705754619842  0.0667978293837701  0.4973691931207965
  0.6527649633698697  0.4501397589063197 -0.0379942148488959
  0.4156617793119127  0.3884335977261955  0.6401125800144082
  0.2670365218663759  0.5114699901654093  0.9523713066255854
  0.2580028677479448  0.0082382865751191  0.9515895688852406
  0.7592459477584191  0.4141800272694391  0.5424563275332501
  0.2003368044758663  0.4507429389060129  0.2820838355605670
  0.1638269023123101  0.9473943467312684  0.2360382993514908
  0.5843560422702084  0.6044331474659737  0.3825177334783036
  0.3391540425878658  1.0072404182436681  0.7462693087154715
  0.0717131176091477  0.8938918686876880  0.6461571064103581
  0.1756599081710147  0.4933689381669653  0.7474995879001807
  0.4950440370562398  0.4047745377912667  0.2127394981276979
  0.6914298260989837  0.0253005015725299  0.7578302714696732
  0.5205570995339110  0.5866089128471120  0.7990784771888617
  0.6632979618395605 -0.0618341358970747  0.3205817085523088
  0.0073853765417873  0.3182866813612592 -0.0392246142528633
  0.0173388483298029  0.2936119074157783  0.6133473253281355
  0.5313991306650093  0.1455550840803682  0.4906779422064800
  0.4816874706732653  0.8127651863864529  0.5899089683957458
  0.5350441683687241  0.1719126735042052  0.8748234115122188
  0.5749199263171205  0.8946083636422781  0.0204547556407940
  0.9601146074427953  0.6648431765211552  0.4818361867226962
  0.9735456033195758  0.7530441427286615  0.8189083914166506
  0.3807927126347989  0.3112296418157317  0.7914395734130312
  0.2667190493150541  0.1117766763398988  0.1203006593908602
  0.4151562286688303  0.3606513765491973  0.4738878497678067
  0.1520807480111498  0.8577407685421724  0.7821535120317947
 -0.1169363470128266  0.3505151031021860  0.0955751809240629
  0.6427715685049342  0.7066487304566583  0.1584897450810774
  0.7779988390981009  0.7523491959743615  0.4148128064239544
  0.1028057434809332  0.8931647820776490  0.4925718195784802
  0.3149635229933466  0.7412673908169367  0.6391633808090336
  0.5469675135238586  0.9192531063236715  0.8376875944971575
  0.6543705991648715  0.2890182571020255  0.8371259126254061
  0.7226617922475150  0.0483359626680772  0.1424347517494517
  0.1921125014586686  0.2276659029267781  0.6458682731531632
  0.0219444450305167  0.3711937250170483  0.4774427632403889
  0.5974714268664324  0.6120817614231062  0.6196765792093029
  0.4943137699451293  0.1364862413149835  0.0334820555858408
  0.6643183182673738  0.2464191593706620  0.4294389159174039
  0.8883600463664395  0.0805575296088479  0.6202650148502438
  0.9702417572479364  0.6763218743783818  0.6087280095563218
  1.0076200016696424  0.3815364629561004  0.7650083259630333
  0.7677582571242013  0.8533608171817050  0.8223482693141085
  0.5389303722812049  0.0755207589909245  0.6270234126853418
  0.4210252587592884  0.7209615522853282  0.1113437116330953
  0.4840221395503111  0.8988213330607611  0.4577218493612252
Cartesian
  0.0000000000000000  0.0000000000000000  0.0000000000000000
  0.0000000000000000  0.0000000000000000  0.0000000000000000
  0.0000000000000000  0.0000000000000000  0.0000000000000000
  0.0000000000000000  0.0000000000000000  0.0000000000000000
  0.0000000000000000  0.0000000000000000  0.0000000000000000
  0.0000000000000000  0.0000000000000000  0.0000000000000000
  0.0000000000000000  0.0000000000000000  0.0000000000000000
  0.0000000000000000  0.0000000000000000  0.0000000000000000
  0.0000000000000000  0.0000000000000000  0.0000000000000000
  0.0000000000000000  0.0000000000000000  0.0000000000000000
  0.0000000000000000  0.0000000000000000  0.0000000000000000
  0.0000000000000000  0.0000000000000000  0.0000000000000000
  0.0000000000000000  0.0000000000000000  0.0000000000000000
  0.0000000000000000  0.0000000000000000  0.0000000000000000
  0.0000000000000000  0.0000000000000000  0.0000000000000000
  0.0000000000000000  0.0000000000000000  0.0000000000000000
  0.0000000000000000  0.0000000000000000  0.0000000000000000
  0.0000000000000000  0.0000000000000000  0.0000000000000000
  0.0000000000000000  0.0000000000000000  0.0000000000000000
  0.0000000000000000  0.0000000000000000  0.0000000000000000
  0.0000000000000000  0.0000000000000000  0.0000000000000000
  0.0000000000000000  0.0000000000000000  0.0000000000000000
  0.0000000000000000  0.0000000000000000  0.0000000000000000
  0.0000000000000000  0.0000000000000000  0.0000000000000000
  0.0000000000000000  0.0000000000000000  0.0000000000000000
  0.0000000000000000  0.0000000000000000  0.0000000000000000
  0.0000000000000000  0.0000000000000000  0.0000000000000000
  0.0000000000000000  0.0000000000000000  0.0000000000000000
  0.0000000000000000  0.0000000000000000  0.0000000000000000
  0.0000000000000000  0.0000000000000000  0.0000000000000000
  0.0000000000000000  0.0000000000000000  0.0000000000000000
  0.0000000000000000  0.0000000000000000  0.0000000000000000
  0.0000000000000000  0.0000000000000000  0.0000000000000000
  0.0000000000000000  0.0000000000000000  0.0000000000000000
  0.0000000000000000  0.0000000000000000  0.0000000000000000
  0.0000000000000000  0.0000000000000000  0.0000000000000000
  0.0000000000000000  0.0000000000000000  0.0000000000000000
  0.0000000000000000  0.0000000000000000  0.0000000000000000
  0.0000000000000000  0.0000000000000000  0.0000000000000000
  0.0000000000000000  0.0000000000000000  0.0000000000000000
  0.0000000000000000  0.0000000000000000  0.0000000000000000
  0.0000000000000000  0.0000000000000000  0.0000000000000000
  0.0000000000000000  0.0000000000000000  0.0000000000000000
  0.0000000000000000  0.0000000000000000  0.0000000000000000
  0.0000000000000000  0.0000000000000000  0.0000000000000000
  0.0000000000000000  0.0000000000000000  0.0000000000000000
  0.0000000000000000  0.0000000000000000  0.0000000000000000
  0.0000000000000000  0.0000000000000000  0.0000000000000000
  0.0000000000000000  0.0000000000000000  0.0000000000000000
  0.0000000000000000  0.0000000000000000  0.0000000000000000
  0.0000000000000000  0.0000000000000000  0.0000000000000000
  0.0000000000000000  0.0000000000000000  0.0000000000000000
  0.0000000000000000  0.0000000000000000  0.0000000000000000
  0.0000000000000000  0.0000000000000000  0.0000000000000000
  0.0000000000000000  0.0000000000000000  0.0000000000000000
