Li28 La12 Zr8 O48                       
   1.00000000000000     
    -6.5957829123330765    6.3426080789947656    6.5958599962325115
     6.5956889668108429   -6.3427579224474782    6.5959468678320938
     6.5958142209190713    6.3426941492950837   -6.5957406060274009
   Li   La   Zr   O 
    28    12     8    48
Direct
  0.3902152108804060  0.6581034138043194  0.3842189577637498
  0.3677656732946062  0.2414739517612006  0.6222123391816936
  0.8800709054677398  0.4899761747735951  0.7157646613343829
  0.6177252807267237  0.7414481163722044  0.3722458436232259
  0.7724205162386184  0.0019442733754431  0.1102220616753371
  0.2127623260094751  0.9929549824488646  0.8860372491708759
  0.8677396016050736  0.2414636780297243  0.1222335729021253
  0.2112049094967716  0.9899124898030180  0.3844868339296994
  0.4550948643036676  0.2444079777938200  0.0666193520598526
  0.0952345794017617  0.4809526071148582  0.2663904600661411
  0.7619566740543391  0.9809668165344263  0.5997340198832006
  0.5623079035083833  0.7444365463175444  0.9596700179660687
  0.1177610178731143  0.7414307818657306  0.8722227530102060
  0.1039665157502583  0.8226977802320050  0.1100003322302712
  0.2743487316895639  0.6602498742564435  0.7772250578439781
  0.3815860062273018  0.4929916982311369  0.7172688481096898
  0.6763225090822402  0.3843980258506221  0.4278602481567972
  0.0304601807347140  0.0985314059504532  0.7879477505056300
  0.7130712148035130  0.8247579790137891  0.2281493227665052
  0.8093048724572327  0.2384897861011694  0.7066452121837585
  0.8797609555490453  0.1581257956224675  0.8947551201789423
  0.7235497672859168  0.3247555316571038  0.2175483951317361
  0.6057908662372640  0.5019284178782399  0.2769097339355966
  0.2832608407612085  0.5984545713580687  0.5347972766927143
  0.9233013848634002  0.8843432144661492  0.1808101700480336
  0.2727198521099297  0.1602410539659331  0.7787342397545487
  0.2022193489279260  0.7385201371900791  0.3136958774706287
  0.6055795101853576  0.3226913836622103  0.6084843654538261
  0.2427526934288622  0.3612337129999901  0.1170123662271365
  0.7427408530177644  0.1216743866015761  0.3774233184631157
  0.1179802219740012  0.2414233365566929  0.3724713394450134
  0.3684418541406842  0.1171608280507712  0.2472252117693543
  0.3675132005840638  0.7414746268204837  0.1219468165935780
  0.1170717565848491  0.3657701267808022  0.7472417944887013
  0.7427534676459473  0.6171491333920542  0.8729263108788743
  0.2427505378577379  0.8657738128330692  0.6215218270708220
  0.8680186547723707  0.7414707099836306  0.6225217968009886
  0.6125101487335769  0.8612193949030100  0.7471987824696527
  0.6174957248441402  0.2414722018824591  0.8719646432925785
  0.8729936204171409  0.6216601688766090  0.2472322668461402
  0.9922350233112951  0.9905284478931264  0.9969200662207456
  0.4922306874441631  0.9913409467763188  0.4975538137622095
  0.4932487012413063  0.4916345034244003  0.9968389269378832
  0.9933008849014939  0.4923342645437572  0.4976455264925477
  0.4924218365573623  0.4905591875376416  0.4967542894727472
  0.4923422787392298  0.9916218490201700  0.9976871874239990
  0.9931528360163853  0.9923518733484258  0.4978340317625651
  0.9931118950066846  0.4913177765178105  0.9966818346062283
  0.4709896729912657  0.3695534616832532  0.2945022017150691
  0.5735455792985533  0.1723482958051576  0.1999057759415948
  0.0145947118024239  0.3105187407496928  0.8971751754986101
  0.9119099327907847  0.1133866446692124  0.5973329766807893
  0.2846293396589630  0.4696006926610465  0.3761470717893047
  0.3783866721988076  0.2891786510369698  0.4753351146999734
  0.5919373426898531  0.9043663252558147  0.1182040293140645
  0.1731817923996744  0.1936767742676366  0.5851887148916859
  0.2008762070180268  0.5785268277403546  0.1834882161251485
  0.3123187071275879  0.8990017203782088  0.0190267767180927
  0.8935157248301380  0.0132198099984251  0.3109729146173095
  0.1070899647961667  0.5838822754441466  0.9092304472467063
  0.1081390538594249  0.0092381256582144  0.2054300680887522
  0.3023915311918728  0.8987431974140421  0.2890798165035733
  0.1831519959368535  0.4736892133425670  0.5948948650403878
  0.3773759227093763  0.5842428979558818  0.8996093710290580
  0.0115777492499376  0.1921692537631046  0.1090436228494980
  0.1975763277975844  0.1146559780827872  0.0284628553376578
  0.5817927516956161  0.8986308807868895  0.3853910266498346
  0.2878643428354692  0.3178398453341131  0.9156090655600977
  0.9037705470675803  0.2906445863817666  0.3153459896689768
  0.5847259820565966  0.1651219107594670  0.4659072064031733
  0.4738492542811983  0.5843801881949062  0.1791079902586787
  0.9007320569834576  0.3682028423770873  0.5788777852552087
  0.5240522131250316  0.6147650571937859  0.7021609651743574
  0.4110972447805352  0.8178551297680769  0.7922568642848304
  0.9615379097359238  0.6651181111836664  0.0892746443085954
  0.0743656531585231  0.8681526102883268  0.4052323570462519
  0.7009403977406947  0.5092473635394299  0.6126930849081234
  0.6045073856489154  0.6922156707347540  0.5161156744823074
  0.3950733389926526  0.0842102467167010  0.8817864181363930
  0.8108485019365759  0.7906683015840201  0.4082974754955089
  0.7846354442955459  0.3987305649622428  0.8068763112298498
  0.6746399387367035  0.0843863459555578  0.9783389816731187
  0.0903877255825378  0.9736868225325779  0.6876401378433883
  0.8810327603911645  0.3986019362370072  0.0862418969351140
  0.8717273331792796  0.9695935928458397  0.7891469835842244
  0.6790634818269510  0.0785302051718588  0.7052974380562418
  0.8064326648078719  0.5131947461534025  0.3979338477963310
  0.6137628681812117  0.4043506370612420  0.0963802295713521
  0.9709045888185344  0.7891583712845431  0.8829256424654730
  0.7899583616634160  0.8695079333768376  0.9754046436180346
  0.4048931971052454  0.0840061101732275  0.6116077754366884
  0.6955073836266124  0.6723967697857205  0.0781151593844029
  0.0805999375520727  0.6936981595548701  0.6776055230251217
  0.3926731281410838  0.8105575971111350  0.5189610262817155
  0.5146136947413211  0.3990489521272522  0.8168141821093471
  0.0929037862197717  0.6133278707437597  0.4164284352159413
 
  0.00000000E+00  0.00000000E+00  0.00000000E+00
  0.00000000E+00  0.00000000E+00  0.00000000E+00
  0.00000000E+00  0.00000000E+00  0.00000000E+00
  0.00000000E+00  0.00000000E+00  0.00000000E+00
  0.00000000E+00  0.00000000E+00  0.00000000E+00
  0.00000000E+00  0.00000000E+00  0.00000000E+00
  0.00000000E+00  0.00000000E+00  0.00000000E+00
  0.00000000E+00  0.00000000E+00  0.00000000E+00
  0.00000000E+00  0.00000000E+00  0.00000000E+00
  0.00000000E+00  0.00000000E+00  0.00000000E+00
  0.00000000E+00  0.00000000E+00  0.00000000E+00
  0.00000000E+00  0.00000000E+00  0.00000000E+00
  0.00000000E+00  0.00000000E+00  0.00000000E+00
  0.00000000E+00  0.00000000E+00  0.00000000E+00
  0.00000000E+00  0.00000000E+00  0.00000000E+00
  0.00000000E+00  0.00000000E+00  0.00000000E+00
  0.00000000E+00  0.00000000E+00  0.00000000E+00
  0.00000000E+00  0.00000000E+00  0.00000000E+00
  0.00000000E+00  0.00000000E+00  0.00000000E+00
  0.00000000E+00  0.00000000E+00  0.00000000E+00
  0.00000000E+00  0.00000000E+00  0.00000000E+00
  0.00000000E+00  0.00000000E+00  0.00000000E+00
  0.00000000E+00  0.00000000E+00  0.00000000E+00
  0.00000000E+00  0.00000000E+00  0.00000000E+00
  0.00000000E+00  0.00000000E+00  0.00000000E+00
  0.00000000E+00  0.00000000E+00  0.00000000E+00
  0.00000000E+00  0.00000000E+00  0.00000000E+00
  0.00000000E+00  0.00000000E+00  0.00000000E+00
  0.00000000E+00  0.00000000E+00  0.00000000E+00
  0.00000000E+00  0.00000000E+00  0.00000000E+00
  0.00000000E+00  0.00000000E+00  0.00000000E+00
  0.00000000E+00  0.00000000E+00  0.00000000E+00
  0.00000000E+00  0.00000000E+00  0.00000000E+00
  0.00000000E+00  0.00000000E+00  0.00000000E+00
  0.00000000E+00  0.00000000E+00  0.00000000E+00
  0.00000000E+00  0.00000000E+00  0.00000000E+00
  0.00000000E+00  0.00000000E+00  0.00000000E+00
  0.00000000E+00  0.00000000E+00  0.00000000E+00
  0.00000000E+00  0.00000000E+00  0.00000000E+00
  0.00000000E+00  0.00000000E+00  0.00000000E+00
  0.00000000E+00  0.00000000E+00  0.00000000E+00
  0.00000000E+00  0.00000000E+00  0.00000000E+00
  0.00000000E+00  0.00000000E+00  0.00000000E+00
  0.00000000E+00  0.00000000E+00  0.00000000E+00
  0.00000000E+00  0.00000000E+00  0.00000000E+00
  0.00000000E+00  0.00000000E+00  0.00000000E+00
  0.00000000E+00  0.00000000E+00  0.00000000E+00
  0.00000000E+00  0.00000000E+00  0.00000000E+00
  0.00000000E+00  0.00000000E+00  0.00000000E+00
  0.00000000E+00  0.00000000E+00  0.00000000E+00
  0.00000000E+00  0.00000000E+00  0.00000000E+00
  0.00000000E+00  0.00000000E+00  0.00000000E+00
  0.00000000E+00  0.00000000E+00  0.00000000E+00
  0.00000000E+00  0.00000000E+00  0.00000000E+00
  0.00000000E+00  0.00000000E+00  0.00000000E+00
  0.00000000E+00  0.00000000E+00  0.00000000E+00
  0.00000000E+00  0.00000000E+00  0.00000000E+00
  0.00000000E+00  0.00000000E+00  0.00000000E+00
  0.00000000E+00  0.00000000E+00  0.00000000E+00
  0.00000000E+00  0.00000000E+00  0.00000000E+00
  0.00000000E+00  0.00000000E+00  0.00000000E+00
  0.00000000E+00  0.00000000E+00  0.00000000E+00
  0.00000000E+00  0.00000000E+00  0.00000000E+00
  0.00000000E+00  0.00000000E+00  0.00000000E+00
  0.00000000E+00  0.00000000E+00  0.00000000E+00
  0.00000000E+00  0.00000000E+00  0.00000000E+00
  0.00000000E+00  0.00000000E+00  0.00000000E+00
  0.00000000E+00  0.00000000E+00  0.00000000E+00
  0.00000000E+00  0.00000000E+00  0.00000000E+00
  0.00000000E+00  0.00000000E+00  0.00000000E+00
  0.00000000E+00  0.00000000E+00  0.00000000E+00
  0.00000000E+00  0.00000000E+00  0.00000000E+00
  0.00000000E+00  0.00000000E+00  0.00000000E+00
  0.00000000E+00  0.00000000E+00  0.00000000E+00
  0.00000000E+00  0.00000000E+00  0.00000000E+00
  0.00000000E+00  0.00000000E+00  0.00000000E+00
  0.00000000E+00  0.00000000E+00  0.00000000E+00
  0.00000000E+00  0.00000000E+00  0.00000000E+00
  0.00000000E+00  0.00000000E+00  0.00000000E+00
  0.00000000E+00  0.00000000E+00  0.00000000E+00
  0.00000000E+00  0.00000000E+00  0.00000000E+00
  0.00000000E+00  0.00000000E+00  0.00000000E+00
  0.00000000E+00  0.00000000E+00  0.00000000E+00
  0.00000000E+00  0.00000000E+00  0.00000000E+00
  0.00000000E+00  0.00000000E+00  0.00000000E+00
  0.00000000E+00  0.00000000E+00  0.00000000E+00
  0.00000000E+00  0.00000000E+00  0.00000000E+00
  0.00000000E+00  0.00000000E+00  0.00000000E+00
  0.00000000E+00  0.00000000E+00  0.00000000E+00
  0.00000000E+00  0.00000000E+00  0.00000000E+00
  0.00000000E+00  0.00000000E+00  0.00000000E+00
  0.00000000E+00  0.00000000E+00  0.00000000E+00
  0.00000000E+00  0.00000000E+00  0.00000000E+00
  0.00000000E+00  0.00000000E+00  0.00000000E+00
  0.00000000E+00  0.00000000E+00  0.00000000E+00
  0.00000000E+00  0.00000000E+00  0.00000000E+00
