Li28 La13 Zr8 O47
1.0
-6.679140 6.421277 6.679207
6.679014 -6.421361 6.679199
6.679278 6.421407 -6.679021
Li La Zr O
28 13 8 47
direct
0.390203 0.658059 0.384073 Li
0.367782 0.241456 0.622242 Li
0.880126 0.490058 0.715836 Li
0.617715 0.741449 0.372288 Li
0.772469 0.002007 0.110266 Li
0.212753 0.992828 0.885966 Li
0.867739 0.241448 0.122244 Li
0.211357 0.990067 0.384583 Li
0.455014 0.244392 0.066689 Li
0.095219 0.480824 0.266347 Li
0.761912 0.980849 0.599697 Li
0.562361 0.744419 0.959613 Li
0.117730 0.741434 0.872210 Li
0.103987 0.822667 0.109865 Li
0.274228 0.660192 0.777210 Li
0.381523 0.492819 0.717235 Li
0.676303 0.384244 0.427809 Li
0.030588 0.098732 0.788063 Li
0.713019 0.824785 0.228184 Li
0.809352 0.238446 0.706497 Li
0.879666 0.158034 0.894739 Li
0.723622 0.324789 0.217469 Li
0.605864 0.501986 0.276899 Li
0.283366 0.598607 0.534888 Li
0.923259 0.884194 0.180726 Li
0.272766 0.160209 0.778576 Li
0.202186 0.738554 0.313736 Li
0.605506 0.322738 0.608518 Li
0.242764 0.361241 0.117023 La
0.742757 0.121674 0.377415 La
0.118011 0.241431 0.372478 La
0.368434 0.117135 0.247204 La
0.367497 0.741461 0.121933 La
0.117103 0.365774 0.747237 La
0.742753 0.617111 0.872883 La
0.242748 0.865773 0.621507 La
0.868038 0.741482 0.622512 La
0.612506 0.861169 0.747153 La
0.617469 0.241416 0.871926 La
0.872987 0.621642 0.247206 La
0.197602 0.114730 0.028491 La
0.992275 0.990553 0.996948 Zr
0.492224 0.991317 0.497557 Zr
0.493269 0.491649 0.996828 Zr
0.993312 0.492345 0.497653 Zr
0.492402 0.490553 0.496734 Zr
0.492307 0.991609 0.997648 Zr
0.993156 0.992368 0.497846 Zr
0.993073 0.491257 0.996664 Zr
0.470917 0.369591 0.294499 O
0.573458 0.172363 0.199879 O
0.014676 0.310534 0.897231 O
0.911953 0.113489 0.597360 O
0.284578 0.469542 0.376117 O
0.378423 0.289229 0.475422 O
0.591904 0.904392 0.118263 O
0.173261 0.193669 0.585297 O
0.200908 0.578501 0.183517 O
0.312252 0.898984 0.018886 O
0.893529 0.013314 0.310981 O
0.107040 0.583969 0.909360 O
0.108219 0.009223 0.205476 O
0.302426 0.898795 0.289018 O
0.183141 0.473631 0.594915 O
0.377338 0.584263 0.899606 O
0.011596 0.192193 0.109137 O
0.581739 0.898522 0.385513 O
0.287955 0.317876 0.915674 O
0.903747 0.290697 0.315321 O
0.584815 0.165096 0.465972 O
0.473969 0.584542 0.179146 O
0.900705 0.368126 0.578795 O
0.524032 0.614671 0.702109 O
0.411113 0.817859 0.792228 O
0.961421 0.665004 0.089169 O
0.074316 0.868137 0.405206 O
0.700948 0.509280 0.612660 O
0.604485 0.692287 0.516193 O
0.395094 0.084195 0.881729 O
0.810827 0.790846 0.408426 O
0.784596 0.398637 0.806797 O
0.674633 0.084444 0.978389 O
0.090312 0.973598 0.687605 O
0.880977 0.398557 0.086240 O
0.871748 0.969724 0.789245 O
0.679015 0.078500 0.705350 O
0.806481 0.513319 0.397981 O
0.613818 0.404431 0.096425 O
0.970967 0.789219 0.882972 O
0.790028 0.869477 0.975400 O
0.404796 0.083926 0.611600 O
0.695550 0.672422 0.078101 O
0.080601 0.693669 0.677643 O
0.392598 0.810529 0.518923 O
0.514581 0.399071 0.816762 O
0.092863 0.613329 0.416445 O
