pymatgen with grid density = 727 / number of atoms
0
Gamma
3 3 2
