user_Na5AlS4_Na5AlS4 NEB image 03       
   1.0000000000000000     
    12.1026382039385112    0.0000000000000000    0.0000000000000007
    -0.0000000000000004    7.0938170788834114    0.0000000000000004
     0.0000000000000000    0.0000000000000000   21.6510149562332330
   Na   Al   S 
    39     8    32
Direct
  0.3515019112404829  0.9085801727168388  0.4998741272555023
  0.6484980887595171  0.4085801727168388  0.0001258727444977
  0.1484980887595171  0.0914198272831612  0.9998741272555023
  0.1484980887595171  0.4085801727168388  0.4998741272555023
  0.3515019112404829  0.5914198272831612  0.9998741272555023
  0.6484980887595171  0.0914198272831612  0.5001258727444977
  0.8515019112404829  0.5914198272831612  0.5001258727444977
  0.8515019112404829  0.9085801727168388  0.0001258727444977
  0.2870374547962271  0.5536414949352135  0.3657040684505759
  0.7129625452037729  0.0536414949352135  0.1342959315494241
  0.2129625452037729  0.4463585050647865  0.8657040684505759
  0.2129625452037729  0.0536414949352135  0.3657040684505759
  0.2870374547962271  0.9463585050647865  0.8657040684505759
  0.7129625452037729  0.4463585050647865  0.6342959315494241
  0.7870374547962271  0.9463585050647865  0.6342959315494241
  0.7870374547962271  0.5536414949352135  0.1342959315494241
  0.5000000000000000  0.5000000000000000  0.5000000000000000
  0.4436070024467682  0.0651660831361625  0.0658873721995192
  0.9436070024467682  0.4348339168638375  0.9341126278004808
  0.9436070024467682  0.0651660831361625  0.4341126278004808
  0.5563929975532318  0.9348339168638375  0.9341126278004808
  0.0563929975532389  0.9348339168638375  0.5658873721995192
  0.0563929975532389  0.5651660831361625  0.0658873721995192
  0.5862778720194157  0.3808765355907084  0.2506361475666594
  0.4137221279805843  0.8808765355907084  0.2493638524333406
  0.9137221279805843  0.6191234644092916  0.7506361475666594
  0.9137221279805843  0.8808765355907084  0.2506361475666594
  0.5862778720194157  0.1191234644092916  0.7506361475666594
  0.4137221279805843  0.6191234644092916  0.7493638524333406
  0.0862778720194157  0.1191234644092916  0.7493638524333406
  0.0862778720194157  0.3808765355907084  0.2493638524333406
  0.8371953317203236  0.1067392765269304  0.8297249852977515
  0.1628046682796764  0.6067392765269304  0.6702750147022485
  0.6628046682796764  0.8932607234730696  0.3297249852977515
  0.6628046682796764  0.6067392765269304  0.8297249852977515
  0.8371953317203236  0.3932607234730696  0.3297249852977515
  0.1628046682796764  0.8932607234730696  0.1702750147022485
  0.3371953317203236  0.3932607234730696  0.1702750147022485
  0.3371953317203236  0.1067392765269304  0.6702750147022485
  0.0400154321083264  0.8299398367099045  0.8745796436464914
  0.9599845678916736  0.3299398367099045  0.6254203563535086
  0.4599845678916736  0.1700601632900955  0.3745796436464914
  0.4599845678916736  0.3299398367099045  0.8745796436464914
  0.0400154321083264  0.6700601632900955  0.3745796436464914
  0.9599845678916736  0.1700601632900955  0.1254203563535086
  0.5400154321083264  0.6700601632900955  0.1254203563535086
  0.5400154321083264  0.8299398367099045  0.6254203563535086
  0.3702490642195073  0.2047340287233723  0.9573718200420416
  0.6297509357804927  0.7047340287233723  0.5426281799579584
  0.1297509357804927  0.7952659712766277  0.4573718200420416
  0.1297509357804927  0.7047340287233723  0.9573718200420416
  0.3702490642195073  0.2952659712766277  0.4573718200420416
  0.6297509357804927  0.7952659712766277  0.0426281799579584
  0.8702490642195073  0.2952659712766277  0.0426281799579584
  0.8702490642195073  0.2047340287233723  0.5426281799579584
  0.4468896129553670  0.8512421222248463  0.3784775266415323
  0.5531103870446330  0.3512421222248463  0.1215224733584677
  0.0531103870446330  0.1487578777751537  0.8784775266415323
  0.0531103870446330  0.3512421222248463  0.3784775266415323
  0.4468896129553670  0.6487578777751537  0.8784775266415323
  0.5531103870446330  0.1487578777751537  0.6215224733584677
  0.9468896129553670  0.6487578777751537  0.6215224733584677
  0.9468896129553670  0.8512421222248463  0.1215224733584677
  0.1413310907989995  0.2452858313589914  0.6244928313576352
  0.8586689092010005  0.7452858313589914  0.8755071686423648
  0.3586689092010005  0.7547141686410086  0.1244928313576352
  0.3586689092010005  0.7452858313589914  0.6244928313576352
  0.1413310907989995  0.2547141686410086  0.1244928313576352
  0.8586689092010005  0.7547141686410086  0.3755071686423648
  0.6413310907989995  0.2547141686410086  0.3755071686423648
  0.6413310907989995  0.2452858313589914  0.8755071686423648
  0.6300934103021092  0.7610106049221272  0.2125107836611306
  0.3699065896978908  0.2610106049221272  0.2874892163388694
  0.8699065896978908  0.2389893950778728  0.7125107836611306
  0.8699065896978908  0.2610106049221272  0.2125107836611306
  0.6300934103021092  0.7389893950778728  0.7125107836611306
  0.3699065896978908  0.2389893950778728  0.7874892163388694
  0.1300934103021092  0.7389893950778728  0.7874892163388694
  0.1300934103021092  0.7610106049221272  0.2874892163388694

             NaN             NaN             NaN
             NaN             NaN             NaN
             NaN             NaN             NaN
             NaN             NaN             NaN
             NaN             NaN             NaN
             NaN             NaN             NaN
             NaN             NaN             NaN
             NaN             NaN             NaN
             NaN             NaN             NaN
             NaN             NaN             NaN
             NaN             NaN             NaN
             NaN             NaN             NaN
             NaN             NaN             NaN
             NaN             NaN             NaN
             NaN             NaN             NaN
             NaN             NaN             NaN
             NaN             NaN             NaN
             NaN             NaN             NaN
             NaN             NaN             NaN
             NaN             NaN             NaN
             NaN             NaN             NaN
             NaN             NaN             NaN
             NaN             NaN             NaN
             NaN             NaN             NaN
             NaN             NaN             NaN
             NaN             NaN             NaN
             NaN             NaN             NaN
             NaN             NaN             NaN
             NaN             NaN             NaN
             NaN             NaN             NaN
             NaN             NaN             NaN
             NaN             NaN             NaN
             NaN             NaN             NaN
             NaN             NaN             NaN
             NaN             NaN             NaN
             NaN             NaN             NaN
             NaN             NaN             NaN
             NaN             NaN             NaN
             NaN             NaN             NaN
             NaN             NaN             NaN
             NaN             NaN             NaN
             NaN             NaN             NaN
             NaN             NaN             NaN
             NaN             NaN             NaN
             NaN             NaN             NaN
             NaN             NaN             NaN
             NaN             NaN             NaN
             NaN             NaN             NaN
             NaN             NaN             NaN
             NaN             NaN             NaN
             NaN             NaN             NaN
             NaN             NaN             NaN
             NaN             NaN             NaN
             NaN             NaN             NaN
             NaN             NaN             NaN
             NaN             NaN             NaN
             NaN             NaN             NaN
             NaN             NaN             NaN
             NaN             NaN             NaN
             NaN             NaN             NaN
             NaN             NaN             NaN
             NaN             NaN             NaN
             NaN             NaN             NaN
             NaN             NaN             NaN
             NaN             NaN             NaN
             NaN             NaN             NaN
             NaN             NaN             NaN
             NaN             NaN             NaN
             NaN             NaN             NaN
             NaN             NaN             NaN
             NaN             NaN             NaN
             NaN             NaN             NaN
             NaN             NaN             NaN
             NaN             NaN             NaN
             NaN             NaN             NaN
             NaN             NaN             NaN
             NaN             NaN             NaN
             NaN             NaN             NaN
             NaN             NaN             NaN
