SYSTEM = relax
ISTART = 0
ICHARG = 2
ENCUT  = 520
PREC   = Accurate
EDIFF  = 1E-6
EDIFFG = -0.02
ISMEAR = 0
SIGMA  = 0.05
IBRION = 2
ISIF   = 3
NSW    = 100
LREAL  = Auto
ALGO   = Normal
LASPH  = .TRUE.
#VDW    = 12   # D3(BJ), if compiled as IVDW
#IVDW   = 12

