Na12 Sb4 S12                            
   1.0000000000000000     
     8.7126920662437701   -0.0000000000000000    0.0000000000000005
    -0.0000000000000005    8.7126920662437701    0.0000000000000005
     0.0000000000000000    0.0000000000000000    8.7126920662437701
   Na   Sb   S 
    12     4    12
Direct
  0.4390875379552099  0.9390875379552099  0.5609124620447901
  0.9390875379552099  0.5609124620447901  0.4390875379552099
  0.5609124620447901  0.4390875379552099  0.9390875379552099
  0.0609124620447901  0.0609124620447901  0.0609124620447901
  0.9313187195438744  0.4313187195438744  0.0686812804561256
  0.4313187195438744  0.0686812804561256  0.9313187195438744
  0.0686812804561256  0.9313187195438744  0.4313187195438744
  0.5686812804561256  0.5686812804561256  0.5686812804561256
  0.6747576509601672  0.1747576509601743  0.3252423490398257
  0.1747576509601743  0.3252423490398257  0.6747576509601672
  0.3252423490398257  0.6747576509601672  0.1747576509601743
  0.8252423490398328  0.8252423490398328  0.8252423490398328
  0.2142932787538498  0.7142932787538498  0.7857067212461502
  0.7142932787538498  0.7857067212461502  0.2142932787538498
  0.7857067212461502  0.2142932787538498  0.7142932787538498
  0.2857067212461502  0.2857067212461502  0.2857067212461502
  0.1410921053735024  0.9853274223448879  0.7465526644849151
  0.2500040828703334  0.6410921053735024  0.5146725776551122
  0.4853274223448878  0.7500040828703334  0.8589078946264976
  0.6410921053735024  0.5146725776551122  0.2500040828703334
  0.7500040828703334  0.8589078946264976  0.4853274223448878
  0.9853274223448878  0.7499959171296666  0.1410921053735024
  0.8589078946264976  0.4853274223448878  0.7500040828703334
  0.7499959171296666  0.1410921053735024  0.9853274223448878
  0.5146725776551122  0.2500040828703334  0.6410921053735024
  0.3589078946264976  0.0146725776551122  0.2499959171296595
  0.2499959171296595  0.3589078946264976  0.0146725776551122
  0.0146725776551122  0.2499959171296595  0.3589078946264976

  0.00000000E+00  0.00000000E+00  0.00000000E+00
  0.00000000E+00  0.00000000E+00  0.00000000E+00
  0.00000000E+00  0.00000000E+00  0.00000000E+00
  0.00000000E+00  0.00000000E+00  0.00000000E+00
  0.00000000E+00  0.00000000E+00  0.00000000E+00
  0.00000000E+00  0.00000000E+00  0.00000000E+00
  0.00000000E+00  0.00000000E+00  0.00000000E+00
  0.00000000E+00  0.00000000E+00  0.00000000E+00
  0.00000000E+00  0.00000000E+00  0.00000000E+00
  0.00000000E+00  0.00000000E+00  0.00000000E+00
  0.00000000E+00  0.00000000E+00  0.00000000E+00
  0.00000000E+00  0.00000000E+00  0.00000000E+00
  0.00000000E+00  0.00000000E+00  0.00000000E+00
  0.00000000E+00  0.00000000E+00  0.00000000E+00
  0.00000000E+00  0.00000000E+00  0.00000000E+00
  0.00000000E+00  0.00000000E+00  0.00000000E+00
  0.00000000E+00  0.00000000E+00  0.00000000E+00
  0.00000000E+00  0.00000000E+00  0.00000000E+00
  0.00000000E+00  0.00000000E+00  0.00000000E+00
  0.00000000E+00  0.00000000E+00  0.00000000E+00
  0.00000000E+00  0.00000000E+00  0.00000000E+00
  0.00000000E+00  0.00000000E+00  0.00000000E+00
  0.00000000E+00  0.00000000E+00  0.00000000E+00
  0.00000000E+00  0.00000000E+00  0.00000000E+00
  0.00000000E+00  0.00000000E+00  0.00000000E+00
  0.00000000E+00  0.00000000E+00  0.00000000E+00
  0.00000000E+00  0.00000000E+00  0.00000000E+00
  0.00000000E+00  0.00000000E+00  0.00000000E+00
