Na12 Sb4 S12
1.0
   8.6386592400000008    0.0000000000000000    0.0000000000000005
  -0.0000000000000005    8.6386592400000008    0.0000000000000005
   0.0000000000000000    0.0000000000000000    8.6386592400000008
Na Sb S
12 4 12
direct
   0.4388228700000000    0.9388228700000000    0.5611771300000000 Na
   0.9388228700000000    0.5611771300000000    0.4388228700000000 Na
   0.5611771300000000    0.4388228700000000    0.9388228700000000 Na
   0.0611771300000000    0.0611771300000000    0.0611771300000000 Na
   0.9313199900000000    0.4313199900000000    0.0686800100000000 Na
   0.4313199900000000    0.0686800100000000    0.9313199900000000 Na
   0.0686800100000000    0.9313199900000000    0.4313199900000000 Na
   0.5686800100000000    0.5686800100000000    0.5686800100000000 Na
   0.6748661100000000    0.1748661100000000    0.3251338900000000 Na
   0.1748661100000000    0.3251338900000000    0.6748661100000000 Na
   0.3251338900000000    0.6748661100000000    0.1748661100000000 Na
   0.8251338900000000    0.8251338900000000    0.8251338900000000 Na
   0.2143310500000000    0.7143310500000000    0.7856689500000000 Sb
   0.7143310500000000    0.7856689500000000    0.2143310500000000 Sb
   0.7856689500000000    0.2143310500000000    0.7143310500000000 Sb
   0.2856689500000000    0.2856689500000000    0.2856689500000000 Sb
   0.1417418100000000    0.9850785900000000    0.7498968200000000 S
   0.2501031800000000    0.6417418100000000    0.5149214100000000 S
   0.4850785900000000    0.7501031800000000    0.8582581900000000 S
   0.6417418100000000    0.5149214100000000    0.2501031800000000 S
   0.7501031800000000    0.8582581900000000    0.4850785900000000 S
   0.9850785900000000    0.7498968200000000    0.1417418100000000 S
   0.8582581900000000    0.4850785900000000    0.7501031800000000 S
   0.7498968200000000    0.1417418100000000    0.9850785900000000 S
   0.5149214100000000    0.2501031800000000    0.6417418100000000 S
   0.3582581900000000    0.0149214100000000    0.2498968200000000 S
   0.2498968200000000    0.3582581900000000    0.0149214100000000 S
   0.0149214100000000    0.2498968200000000    0.3582581900000000 S
