Na12 Sb4 S12                            
   1.0000000000000000     
     8.7126920662437701   -0.0000000000000000    0.0000000000000005
    -0.0000000000000005    8.7126920662437701    0.0000000000000005
     0.0000000000000000    0.0000000000000000    8.7126920662437701
   Na   Sb   S 
    12     4    12
Direct
  0.4390875379552117  0.9390875379552117  0.5609124620447883
  0.9390875379552117  0.5609124620447883  0.4390875379552117
  0.5609124620447883  0.4390875379552117  0.9390875379552117
  0.0609124620447883  0.0609124620447883  0.0609124620447883
  0.9313187195438737  0.4313187195438737  0.0686812804561263
  0.4313187195438737  0.0686812804561263  0.9313187195438737
  0.0686812804561263  0.9313187195438737  0.4313187195438737
  0.5686812804561263  0.5686812804561263  0.5686812804561263
  0.6747576509601638  0.1747576509601708  0.3252423490398292
  0.1747576509601708  0.3252423490398292  0.6747576509601638
  0.3252423490398292  0.6747576509601638  0.1747576509601708
  0.8252423490398363  0.8252423490398363  0.8252423490398362
  0.2142932787538491  0.7142932787538491  0.7857067212461509
  0.7142932787538491  0.7857067212461509  0.2142932787538491
  0.7857067212461509  0.2142932787538491  0.7142932787538491
  0.2857067212461509  0.2857067212461509  0.2857067212461509
  0.1410921053735036  0.9853274223448899  0.7499959171296681
  0.2500040828703319  0.6410921053735036  0.5146725776551101
  0.4853274223448900  0.7500040828703319  0.8589078946264964
  0.6410921053735036  0.5146725776551101  0.2500040828703319
  0.7500040828703319  0.8589078946264964  0.4853274223448900
  0.9853274223448899  0.7499959171296681  0.1410921053735036
  0.8589078946264964  0.4853274223448900  0.7500040828703319
  0.7499959171296681  0.1410921053735036  0.9853274223448899
  0.5146725776551101  0.2500040828703319  0.6410921053735036
  0.3589078946264963  0.0146725776551101  0.2499959171296610
  0.2499959171296610  0.3589078946264963  0.0146725776551101
  0.0146725776551101  0.2499959171296610  0.3589078946264963

  0.00000000E+00  0.00000000E+00  0.00000000E+00
  0.00000000E+00  0.00000000E+00  0.00000000E+00
  0.00000000E+00  0.00000000E+00  0.00000000E+00
  0.00000000E+00  0.00000000E+00  0.00000000E+00
  0.00000000E+00  0.00000000E+00  0.00000000E+00
  0.00000000E+00  0.00000000E+00  0.00000000E+00
  0.00000000E+00  0.00000000E+00  0.00000000E+00
  0.00000000E+00  0.00000000E+00  0.00000000E+00
  0.00000000E+00  0.00000000E+00  0.00000000E+00
  0.00000000E+00  0.00000000E+00  0.00000000E+00
  0.00000000E+00  0.00000000E+00  0.00000000E+00
  0.00000000E+00  0.00000000E+00  0.00000000E+00
  0.00000000E+00  0.00000000E+00  0.00000000E+00
  0.00000000E+00  0.00000000E+00  0.00000000E+00
  0.00000000E+00  0.00000000E+00  0.00000000E+00
  0.00000000E+00  0.00000000E+00  0.00000000E+00
  0.00000000E+00  0.00000000E+00  0.00000000E+00
  0.00000000E+00  0.00000000E+00  0.00000000E+00
  0.00000000E+00  0.00000000E+00  0.00000000E+00
  0.00000000E+00  0.00000000E+00  0.00000000E+00
  0.00000000E+00  0.00000000E+00  0.00000000E+00
  0.00000000E+00  0.00000000E+00  0.00000000E+00
  0.00000000E+00  0.00000000E+00  0.00000000E+00
  0.00000000E+00  0.00000000E+00  0.00000000E+00
  0.00000000E+00  0.00000000E+00  0.00000000E+00
  0.00000000E+00  0.00000000E+00  0.00000000E+00
  0.00000000E+00  0.00000000E+00  0.00000000E+00
  0.00000000E+00  0.00000000E+00  0.00000000E+00
