mp-560538_Na3AlS3 NEB_v2 image 01       
   1.0000000000000000     
    12.1828203277415312    0.0000000000000000    0.0000000000000007
    -0.0000000000000005    7.5674693205415418    1.1970639402156102
     0.0000000000000000    0.0113082934473333   13.7304524371335805
   Na   Al   S 
    23     8    24
Direct
  0.0023678032173180  0.0374006618218488  0.7733620196042708
  0.7594078247518325  0.9890484188004152  0.0050624014759677
  0.8226779396404424  0.5012621993372406  0.7523341796917862
  0.7543609383917627  0.9848855043035485  0.5167411819144263
  0.9543325310457789  0.0980640346904380  0.3335263204178318
  0.2390477902180521  0.5525260730542598  0.4811957109109883
  0.8221123933766634  0.5067408580836670  0.2519859567782987
  0.2369712059590867  0.0281427063001658  0.4970151017294455
  0.7502196327155843  0.4861899788245765  0.0089198447611594
  0.3852378420450933  0.3668830260488889  0.6574414973362863
  0.2564033227369933  0.5046219034114330  0.9934370299585211
  0.2532809406493897  0.0118232554961892  0.9940702282652651
  0.7453713651770784  0.4832002354895266  0.5141113801805375
  0.1804992827914305  0.4867197649184618  0.2476132837440517
  0.0327497765517464  0.9077691856246091  0.1724639759481832
  0.5445717320405095  0.6016343475482415  0.3325550030341944
  0.3128296297013264  0.9736967425958980  0.7578047050444781
  0.3185522608872233  0.9892463892699439  0.2514151387157355
  0.1650904501717179  0.5245599014867537  0.7523454664960525
  0.4740966968080613  0.4025847776893485  0.1815250235946309
  0.6868203849780556  0.0089979849881843  0.7530362055533786
  0.5215669842220336  0.5793663070115116  0.8061725860619688
  0.6779694330995625  0.0054690940777320  0.2494682225821876
  0.0055827777246407  0.3204236230515747  0.0737693338035044
  0.0085040815828634  0.3433965099799678  0.5752237488850582
  0.5070514022583410  0.1781126734539384  0.4304847962474483
  0.4965645737781799  0.8315874564785233  0.5740590518388871
  0.5056204017892227  0.1663590339956542  0.9253529781154342
  0.4957107331280142  0.8224085748881009  0.0737984743753657
  0.9909489280411918  0.6822749828476518  0.4292653513040747
  0.9957214193700210  0.6625564584102079  0.9304433641557779
  0.3548476296925926  0.3034119586584438  0.8601229080910642
  0.1663746161632957  0.2096886972013436  0.1294828577307214
  0.3601528430656202  0.3311790308075260  0.3692501414078038
  0.1509495282215525  0.7952930772655122  0.8748439456754795
  0.9927062888483036  0.6072884095535045  0.1006023946942562
  0.6443361702118651  0.6851590862896657  0.1421126704402980
  0.8291774060081210  0.7856709989197483  0.3733657490401114
  0.1338506496491902  0.8378681561245998  0.3589799410493342
  0.3373464808008393  0.7178329606653477  0.6315220525069805
  0.4989663782386842  0.8743742021694842  0.9044362324217374
  0.6638852905374080  0.2871648961689530  0.8728170998883513
  0.8592980543896118  0.1771445612502518  0.1440645785793038
  0.1670270423657314  0.2305312259396075  0.6384060645434744
  0.0120183074541060  0.3945627886886669  0.4046790358190293
  0.6474363471014257  0.6975242873242422  0.6383055265902868
  0.5002439697427050  0.1124496755763076  0.0958372148089737
  0.6652292006878398  0.2885618353665151  0.3682053182435041
  0.8556157412347858  0.2093817759549523  0.6358278215371982
  0.9995206795348608  0.6335775121863989  0.5972663009665595
  0.9992715286574025  0.3728180129726937  0.9051956649874171
  0.8409686430352039  0.7862961391559438  0.8694684675284421
  0.5127917434388607  0.1193774858188164  0.5992119494226031
  0.3386454366015030  0.7037698859932178  0.1338462318968041
  0.4905364594110679  0.8922285286402101  0.4041160664025085

             NaN             NaN             NaN
             NaN             NaN             NaN
             NaN             NaN             NaN
             NaN             NaN             NaN
             NaN             NaN             NaN
             NaN             NaN             NaN
             NaN             NaN             NaN
             NaN             NaN             NaN
             NaN             NaN             NaN
             NaN             NaN             NaN
             NaN             NaN             NaN
             NaN             NaN             NaN
             NaN             NaN             NaN
             NaN             NaN             NaN
             NaN             NaN             NaN
             NaN             NaN             NaN
             NaN             NaN             NaN
             NaN             NaN             NaN
             NaN             NaN             NaN
             NaN             NaN             NaN
             NaN             NaN             NaN
             NaN             NaN             NaN
             NaN             NaN             NaN
             NaN             NaN             NaN
             NaN             NaN             NaN
             NaN             NaN             NaN
             NaN             NaN             NaN
             NaN             NaN             NaN
             NaN             NaN             NaN
             NaN             NaN             NaN
             NaN             NaN             NaN
             NaN             NaN             NaN
             NaN             NaN             NaN
             NaN             NaN             NaN
             NaN             NaN             NaN
             NaN             NaN             NaN
             NaN             NaN             NaN
             NaN             NaN             NaN
             NaN             NaN             NaN
             NaN             NaN             NaN
             NaN             NaN             NaN
             NaN             NaN             NaN
             NaN             NaN             NaN
             NaN             NaN             NaN
             NaN             NaN             NaN
             NaN             NaN             NaN
             NaN             NaN             NaN
             NaN             NaN             NaN
             NaN             NaN             NaN
             NaN             NaN             NaN
             NaN             NaN             NaN
             NaN             NaN             NaN
             NaN             NaN             NaN
             NaN             NaN             NaN
             NaN             NaN             NaN
