mp-560538_Na3AlS3 NEB_v2 image 01
  1.0
     12.1828203277415312      0.0000000000000000      0.0000000000000007
     -0.0000000000000005      7.5674693205415418      1.1970639402156102
      0.0000000000000000      0.0113082934473333     13.7304524371335805
  Na  Al  S
  23  8  24
Direct
  0.0023678032173191  0.0374006618218496  0.7733620196042736
  0.7594078247518334  0.9890484188004151  0.0050624014759647
  0.8226779396404396  0.5012621993372401  0.7523341796917877
  0.7543609383917627  0.9848855043035449  0.5167411819144234
  0.9543325310457820  0.0980640346904395  0.3335263204178310
  0.2390477902180554  0.5525260730542606  0.4811957109109850
  0.8221123933766658  0.5067408580836693  0.2519859567783010
  0.2369712059590879  0.0281427063001633  0.4970151017294455
  0.7502196327155854  0.4861899788245780  0.0089198447611613
  0.3852378420450943  0.3668830260488868  0.6574414973362885
  0.2564033227369923  0.5046219034114338  0.9934370299585218
  0.2532809406493895  0.0118232554961882  0.9940702282652666
  0.7453713651770754  0.4832002354895292  0.5141113801805380
  0.1804992827914272  0.4867197649184619  0.2476132837440508
  0.0327497765517485  0.9077691856246078  0.1724639759481802
  0.5445717320405112  0.6016343475482399  0.3325550030341978
  0.3128296297013241  0.9736967425958974  0.7578047050444779
  0.3185522608872235  0.9892463892699430  0.2514151387157330
  0.1650904501717154  0.5245599014867512  0.7523454664960532
  0.4740966968080595  0.4025847776893482  0.1815250235946305
  0.6868203849780539  0.0089979849881851  0.7530362055533755
  0.5215669842220308  0.5793663070115138  0.8061725860619668
  0.6779694330995604  0.0054690940777332  0.2494682225821899
  0.0055827777246396  0.3204236230515721  0.0737693338035040
  0.0085040815828641  0.3433965099799665  0.5752237488850614
  0.5070514022583397  0.1781126734539376  0.4304847962474503
  0.4965645737781764  0.8315874564785256  0.5740590518388888
  0.5056204017892213  0.1663590339956538  0.9253529781154319
  0.4957107331280167  0.8224085748881031  0.0737984743753689
  0.9909489280411911  0.6822749828476484  0.4292653513040717
  0.9957214193700185  0.6625564584102049  0.9304433641557791
  0.3548476296925932  0.3034119586584423  0.8601229080910616
  0.1663746161632953  0.2096886972013455  0.1294828577307227
  0.3601528430656210  0.3311790308075250  0.3692501414078064
  0.1509495282215556  0.7952930772655151  0.8748439456754779
  0.9927062888483018  0.6072884095535035  0.1006023946942533
  0.6443361702118644  0.6851590862896662  0.1421126704403014
  0.8291774060081183  0.7856709989197459  0.3733657490401103
  0.1338506496491912  0.8378681561246007  0.3589799410493348
  0.3373464808008371  0.7178329606653497  0.6315220525069789
  0.4989663782386846  0.8743742021694866  0.9044362324217364
  0.6638852905374056  0.2871648961689550  0.8728170998883489
  0.8592980543896083  0.1771445612502509  0.1440645785793072
  0.1670270423657335  0.2305312259396106  0.6384060645434768
  0.0120183074541048  0.3945627886886658  0.4046790358190265
  0.6474363471014267  0.6975242873242425  0.6383055265902894
  0.5002439697427046  0.1124496755763058  0.0958372148089733
  0.6652292006878398  0.2885618353665146  0.3682053182435061
  0.8556157412347880  0.2093817759549498  0.6358278215371986
  0.9995206795348583  0.6335775121863975  0.5972663009665622
  0.9992715286574029  0.3728180129726941  0.9051956649874165
  0.8409686430352029  0.7862961391559441  0.8694684675284445
  0.5127917434388605  0.1193774858188176  0.5992119494226001
  0.3386454366015061  0.7037698859932170  0.1338462318968047
  0.4905364594110692  0.8922285286402110  0.4041160664025064
