Na5InS4 bottleneck NEB image 03         
   1.0000000000000000     
     6.8330688911791304    0.0000000000000000   -0.1272470229470229
    -0.0000000000000005    8.8359252756919275    0.0000000000000005
    -0.0048172062806638    0.0000000000000000    7.8804846921668430
   Na   In   S 
     9     2     8
Direct
  0.6427000890486951  0.5482480897776085  0.6728245653682450
  0.3541665522187500  0.1603586650751225  0.3209121172465146
  0.4517441909436002  0.3035508825235453  0.4201272455515905
  0.7481191036063422  0.0524161084296324  0.6302645859434932
  0.9805244446005403  0.1125161909962102  0.4987822142016753
  0.9308519319122368  0.8927532236430551  0.3911733825614832
  0.6777067116561852  0.0024957553316440  0.9992062989842054
  0.1303280004589027  0.9165396292222425  0.9608910051372135
  0.9925797745993705  0.4978740577242675  0.0002927134785082
  0.6650485077880433  0.7485590534592532  0.1895786640541957
  0.3319563897320634  0.2557446921768474  0.8126844607202059
  0.7875231483947047  0.7659482167975398  0.8954682766513500
  0.2072561615177122  0.2373417842445704  0.1050437119095236
  0.2325727623284024  0.0209321916095817  0.6552691326437383
  0.7767008526672612  0.5148988244342902  0.3407226370667047
  0.7720375960899943  0.9779985421944417  0.3525744496891434
  0.2171630431829072  0.4844275507746545  0.6537161754378786
  0.6983176770804818  0.2657201886670961  0.8040432760320826
  0.2996292642888392  0.7356273811733089  0.1959111333342065

             NaN             NaN             NaN
             NaN             NaN             NaN
             NaN             NaN             NaN
             NaN             NaN             NaN
             NaN             NaN             NaN
             NaN             NaN             NaN
             NaN             NaN             NaN
             NaN             NaN             NaN
             NaN             NaN             NaN
             NaN             NaN             NaN
             NaN             NaN             NaN
             NaN             NaN             NaN
             NaN             NaN             NaN
             NaN             NaN             NaN
             NaN             NaN             NaN
             NaN             NaN             NaN
             NaN             NaN             NaN
             NaN             NaN             NaN
             NaN             NaN             NaN
