Na In S                                 
   1.0000000000000000     
     6.8330688911791304    0.0000000000000000   -0.1272470229470229
    -0.0000000000000005    8.8359252756919275    0.0000000000000005
    -0.0048172062806638    0.0000000000000000    7.8804846921668430
   Na   In   S 
     9     2     8
Direct
  0.6426233914790203  0.5554290489601996  0.6769579629329172
  0.2567196689341245  0.0020363460962827  0.2287837069531165
  0.3557675531010318  0.4584027794331575  0.3201151895655201
  0.6394583486468477  0.9795165377724615  0.6742720077050777
  0.6655652031508268  0.2198362654846306  0.4881829954513535
  0.0593037383971264  0.7618927526833019  0.4814872276970803
  0.7694618979276271  0.1488676171568812  0.0910679158741488
  0.2233152108331922  0.8407323095906349  0.9072664493373139
  0.9917778764024234  0.4983006622411708  0.9999325702926569
  0.6646944930390504  0.7494877379969651  0.1889166310053270
  0.3273814661342982  0.2562242916659230  0.8176721258134521
  0.7875174094266910  0.7663281572599061  0.8957541747209703
  0.2042025731476826  0.2462877816073856  0.0991677897245253
  0.2291576913822695  0.0193046116671383  0.6577054223100163
  0.7795295981086028  0.5221823218674331  0.3366299369368662
  0.7723480693680642  0.9783556299555087  0.3522844851197391
  0.2152963871069602  0.4854670439963442  0.6546020941144377
  0.7012652347918547  0.2686159418456100  0.8302232886481136
  0.2991341994392513  0.7364970099296642  0.1953703570904821

             NaN             NaN             NaN
             NaN             NaN             NaN
             NaN             NaN             NaN
             NaN             NaN             NaN
             NaN             NaN             NaN
             NaN             NaN             NaN
             NaN             NaN             NaN
             NaN             NaN             NaN
             NaN             NaN             NaN
             NaN             NaN             NaN
             NaN             NaN             NaN
             NaN             NaN             NaN
             NaN             NaN             NaN
             NaN             NaN             NaN
             NaN             NaN             NaN
             NaN             NaN             NaN
             NaN             NaN             NaN
             NaN             NaN             NaN
             NaN             NaN             NaN
