Na5InS4 bottleneck NEB image 03
  1.0
      6.8330688911791304      0.0000000000000000     -0.1272470229470229
     -0.0000000000000005      8.8359252756919275      0.0000000000000005
     -0.0048172062806638      0.0000000000000000      7.8804846921668430
  Na  In  S
  9  2  8
Direct
  0.6427000890486950  0.5482480897776092  0.6728245653682460
  0.3541665522187478  0.1603586650751240  0.3209121172465155
  0.4517441909436035  0.3035508825235451  0.4201272455515926
  0.7481191036063397  0.0524161084296324  0.6302645859434909
  0.9805244446005396  0.1125161909962134  0.4987822142016775
  0.9308519319122399  0.8927532236430527  0.3911733825614825
  0.6777067116561872  0.0024957553316457  0.9992062989842071
  0.1303280004589026  0.9165396292222433  0.9608910051372106
  0.9925797745993725  0.4978740577242708  0.0002927134785073
  0.6650485077880439  0.7485590534592522  0.1895786640541982
  0.3319563897320644  0.2557446921768454  0.8126844607202093
  0.7875231483947023  0.7659482167975413  0.8954682766513513
  0.2072561615177109  0.2373417842445722  0.1050437119095259
  0.2325727623284015  0.0209321916095847  0.6552691326437409
  0.7767008526672637  0.5148988244342871  0.3407226370667055
  0.7720375960899944  0.9779985421944414  0.3525744496891421
  0.2171630431829106  0.4844275507746529  0.6537161754378786
  0.6983176770804798  0.2657201886670993  0.8040432760320811
  0.2996292642888396  0.7356273811733077  0.1959111333342095
