Na In S 
 1.0000000000000000
     6.8330688911791304    0.0000000000000000   -0.1272470229470229
    -0.0000000000000005    8.8359252756919275    0.0000000000000005
    -0.0048172062806638    0.0000000000000000    7.8804846921668430
 Na  In  S  
   9   2   8
Direct
  0.6426233914790173  0.5554290489602005  0.6769579629329165
  0.2567196689341221  0.0020363460962826  0.2287837069531175
  0.3557675531010342  0.4584027794331565  0.3201151895655192
  0.6394583486468485  0.9795165377724592  0.6742720077050809
  0.6655652031508297  0.2198362654846292  0.4881829954513531
  0.0593037383971231  0.7618927526833050  0.4814872276970785
  0.7694618979276262  0.1488676171568823  0.0910679158741458
  0.2233152108331900  0.8407323095906319  0.9072664493373147
 -0.0082221235975781  0.4983006622411700 -0.0000674297073422
  0.6646944930390531  0.7494877379969656  0.1889166310053285
  0.3273814661342989  0.2562242916659220  0.8176721258134549
  0.7875174094266886  0.7663281572599090  0.8957541747209730
  0.2042025731476849  0.2462877816073856  0.0991677897245218
  0.2291576913822673  0.0193046116671386  0.6577054223100164
  0.7795295981086009  0.5221823218674364  0.3366299369368688
  0.7723480693680672  0.9783556299555114  0.3522844851197397
  0.2152963871069587  0.4854670439963438  0.6546020941144350
  0.7012652347918512  0.2686159418456099  0.8302232886481100
  0.2991341994392496  0.7364970099296664  0.1953703570904793
Cartesian
  0.0000000000000000  0.0000000000000000  0.0000000000000000
  0.0000000000000000  0.0000000000000000  0.0000000000000000
  0.0000000000000000  0.0000000000000000  0.0000000000000000
  0.0000000000000000  0.0000000000000000  0.0000000000000000
  0.0000000000000000  0.0000000000000000  0.0000000000000000
  0.0000000000000000  0.0000000000000000  0.0000000000000000
  0.0000000000000000  0.0000000000000000  0.0000000000000000
  0.0000000000000000  0.0000000000000000  0.0000000000000000
  0.0000000000000000  0.0000000000000000  0.0000000000000000
  0.0000000000000000  0.0000000000000000  0.0000000000000000
  0.0000000000000000  0.0000000000000000  0.0000000000000000
  0.0000000000000000  0.0000000000000000  0.0000000000000000
  0.0000000000000000  0.0000000000000000  0.0000000000000000
  0.0000000000000000  0.0000000000000000  0.0000000000000000
  0.0000000000000000  0.0000000000000000  0.0000000000000000
  0.0000000000000000  0.0000000000000000  0.0000000000000000
  0.0000000000000000  0.0000000000000000  0.0000000000000000
  0.0000000000000000  0.0000000000000000  0.0000000000000000
  0.0000000000000000  0.0000000000000000  0.0000000000000000
