ALGO = All
EDIFF = 1e-06
ENCUT = 520
HFSCREEN = 0.2
IBRION = 2
ICHARG = 1
ISIF = 3
ISMEAR = 0
ISPIN = 2
LHFCALC = True
LORBIT = 11
LREAL = Auto
LWAVE = False
MAGMOM = 96*0.6
NELM = 100
NSW = 99
PREC = Accurate
PRECFOCK = Fast
SIGMA = 0.05
