NMC-411-rhombo Li=0.75 (22/30 Li)
1.0
     14.5435820000      0.0000000000      0.0000000000
     -2.9556655478      4.9949886482      0.0000000000
     -0.0638547021      0.0853510950     14.2669988057
  Li  Ni  Mn  Co  O
  22  15  9  6  60
Direct
      0.0000000000      0.1971780000      0.9940340000
      0.0000000000      0.3985060000      0.9950300000
      0.0000000000      0.9985370000      0.0053600000
      0.0000000000      0.6073200000      0.0123670000
      0.0000000000      0.1305550000      0.1594210000
      0.0000000000      0.3272620000      0.1627280000
      0.0000000000      0.9345210000      0.1667990000
      0.0000000000      0.5336740000      0.1678480000
      0.0000000000      0.2668390000      0.3248900000
      0.0000000000      0.6686700000      0.3350780000
      0.0000000000      0.8672570000      0.3354500000
      0.0000000000      0.4683220000      0.3365690000
      0.0000000000      0.0016090000      0.4979370000
      0.0000000000      0.3990970000      0.5022090000
      0.0000000000      0.8027780000      0.5077360000
      0.0000000000      0.3297370000      0.6570940000
      0.0000000000      0.1335580000      0.6595520000
      0.0000000000      0.9367870000      0.6712090000
      0.0000000000      0.7353890000      0.6775010000
      0.0000000000      0.0673020000      0.8257360000
      0.0000000000      0.4706730000      0.8322170000
      0.0000000000      0.8671020000      0.8388060000
      0.0000000000      0.7338420000      0.1731540000
      0.0000000000      0.9361500000      0.6721370000
      0.0000000000      0.0675810000      0.8316050000
      0.0000000000      0.2683870000      0.3324950000
      0.0000000000      0.8674770000      0.3374810000
      0.0000000000      0.0004520000      0.4985170000
      0.0000000000      0.1991370000      0.9948530000
      0.0000000000      0.3990770000      0.4984450000
      0.0000000000      0.6004090000      0.0010410000
      0.0000000000      0.7996030000      0.0004630000
      0.0000000000      0.5335500000      0.1699930000
      0.0000000000      0.1336180000      0.1649130000
      0.0000000000      0.5335410000      0.6690180000
      0.0000000000      0.6669150000      0.8375780000
      0.0000000000      0.5985940000      0.4977100000
      0.0000000000      0.8019060000      0.5036980000
      0.0000000000      0.4643390000      0.8295630000
      0.0000000000      0.3306660000      0.1600670000
      0.0000000000      0.7357410000      0.6779560000
      0.0000000000      0.4639600000      0.3319830000
      0.0000000000      0.6680080000      0.3381060000
      0.0000000000      0.8695330000      0.8448520000
      0.0000000000      0.1965260000      0.4866410000
      0.0000000000      0.3990930000      0.9957980000
      0.0000000000      0.3312340000      0.6642080000
      0.0000000000      0.1330760000      0.6619260000
      0.0000000000      0.9354890000      0.1714570000
      0.0000000000      0.0674930000      0.3323010000
      0.0000000000      0.2662390000      0.8280530000
      0.0000000000      0.9999370000      0.9980550000
      0.0000000000      0.9957710000      0.0091710000
      0.0000000000      0.0084000000      0.5074800000
      0.0000000000      0.1996250000      0.9773050000
      0.0000000000      0.1981360000      0.5036540000
      0.0000000000      0.3985820000      0.9962350000
      0.0000000000      0.4092380000      0.5098930000
      0.0000000000      0.5942970000      0.0089420000
      0.0000000000      0.5940310000      0.4822970000
      0.0000000000      0.8034820000      0.9941180000
      0.0000000000      0.7930330000      0.5071580000
      0.0000000000      0.9974920000      0.0041180000
      0.0000000000      0.0058450000      0.4907460000
      0.0000000000      0.2016950000      0.9851830000
      0.0000000000      0.1985690000      0.4997630000
      0.0000000000      0.3891330000      0.9861300000
      0.0000000000      0.3884700000      0.4841500000
      0.0000000000      0.5977140000      0.0154130000
      0.0000000000      0.6089690000      0.5082880000
      0.0000000000      0.8049030000      0.9991380000
      0.0000000000      0.8051040000      0.5280250000
      0.0000000000      0.1304390000      0.1698420000
      0.0000000000      0.1311780000      0.6422090000
      0.0000000000      0.3363860000      0.1488180000
      0.0000000000      0.3246250000      0.6624940000
      0.0000000000      0.5254210000      0.1404950000
      0.0000000000      0.5353120000      0.6814260000
      0.0000000000      0.7418490000      0.1959430000
      0.0000000000      0.7397120000      0.6652490000
      0.0000000000      0.9397720000      0.1673170000
      0.0000000000      0.9323190000      0.6826310000
      0.0000000000      0.1265440000      0.1564440000
      0.0000000000      0.1390120000      0.6546470000
      0.0000000000      0.3386590000      0.1596110000
      0.0000000000      0.3390420000      0.6855330000
      0.0000000000      0.5334080000      0.1722280000
      0.0000000000      0.5244160000      0.6586750000
      0.0000000000      0.7279730000      0.1810060000
      0.0000000000      0.7369240000      0.6651460000
      0.0000000000      0.9343070000      0.1596490000
      0.0000000000      0.9332170000      0.6856830000
      0.0000000000      0.0640700000      0.3422020000
      0.0000000000      0.0696080000      0.8239590000
      0.0000000000      0.2710300000      0.3309180000
      0.0000000000      0.2661360000      0.8302490000
      0.0000000000      0.4603580000      0.3137090000
      0.0000000000      0.4601670000      0.8341840000
      0.0000000000      0.6730530000      0.3639780000
      0.0000000000      0.6710630000      0.8324270000
      0.0000000000      0.8757810000      0.3444140000
      0.0000000000      0.8639190000      0.8514460000
      0.0000000000      0.0691440000      0.3183350000
      0.0000000000      0.0589390000      0.8256190000
      0.0000000000      0.2585070000      0.3324830000
      0.0000000000      0.2662970000      0.8159460000
      0.0000000000      0.4596470000      0.3075110000
      0.0000000000      0.4603750000      0.8396090000
      0.0000000000      0.6748040000      0.3332430000
      0.0000000000      0.6656670000      0.8483890000
      0.0000000000      0.8681910000      0.3454340000
      0.0000000000      0.8700660000      0.8228830000
