Na Al S                                 
   1.0000000000000000     
    12.1026382039385112    0.0000000000000000    0.0000000000000007
    -0.0000000000000004    7.0938170788834114    0.0000000000000004
     0.0000000000000000    0.0000000000000000   21.6510149562332330
   Na   Al   S 
    39     8    32
Direct
  0.3476834079949640  0.9082991991221760  0.4986860759802880
  0.6438647492971512  0.4053139874879221  0.9991675090451224
  0.1629334723750659  0.0907547592186901  0.9937656845330949
  0.1520403586536645  0.4074590994778475  0.4984937095836059
  0.3414363672298393  0.5986559265840867  0.9965175692035118
  0.6520803490356428  0.0909106874977894  0.5012550491838041
  0.8479883423049444  0.5907016044778715  0.5012310664234576
  0.8524659930715970  0.9067425466414463  0.9983447937237528
  0.2878220667912501  0.5509098033858848  0.3626937994909909
  0.7138033760347184  0.0493176782072666  0.1354467830454311
  0.2355464150023749  0.5982128398982098  0.8653186143679790
  0.2121969435758828  0.0505691627757656  0.3625666486562622
  0.7125430436999096  0.4488541946981428  0.6382564560119306
  0.7875630595795826  0.9480309831505522  0.6379384183766490
  0.7857094714582047  0.5484986534062841  0.1360749149074394
  0.5527338982393104  0.5613169084611798  0.4350160306891695
  0.4484238972346617  0.0599408748985368  0.0673349517001682
  0.9493355449661181  0.4386451910436691  0.9347338421015650
  0.9474624097192859  0.0608510027561096  0.4347103907215626
  0.5448818909788997  0.9411882628186135  0.9340977057780719
  0.4463022050296743  0.4381217614247319  0.5661600243426363
  0.0536600809997125  0.9370742102948100  0.5658395809296053
  0.0498813960651461  0.5579445946725130  0.0663252765496978
  0.5836614469675254  0.3851752434591376  0.2532425336103756
  0.4152778445486263  0.8838436348186818  0.2469684646750352
  0.9191034490531109  0.6147965746051156  0.7529512279554567
  0.9161629906314914  0.8839463311114670  0.2528329244127079
  0.5830253807714527  0.1190619063958280  0.7526958799504300
  0.4032344036132045  0.6410020839837500  0.7523009239994636
  0.0941186812102472  0.1275866611906977  0.7508992006064048
  0.0840855603264998  0.3831460035191228  0.2466020405090390
  0.8367745073552726  0.1030877242106882  0.8304096551489337
  0.1641668707443813  0.6067298945832249  0.6686557297511442
  0.6641010315177240  0.8933127227259519  0.3303622819407366
  0.6647498336109834  0.6054734300294768  0.8310398612920125
  0.8361589401705913  0.3924030504404641  0.3303992410780410
  0.1628403758896368  0.8906045244481291  0.1681867266759411
  0.3354324355195857  0.3915996497291516  0.1685545881614630
  0.3365965012325205  0.1096611478198781  0.6693262785377669
  0.0471764347700514  0.8334188080090570  0.8739791021122230
  0.9598076369560431  0.3313462724829463  0.6257572242637579
  0.4590684192413832  0.1666988584975257  0.3742801380986336
  0.4577995902558669  0.3314062325152491  0.8742710124808255
  0.0409859921837494  0.6663690082774139  0.3740727613391357
  0.9586936344651207  0.1650133836479242  0.1247026036138195
  0.5404299427592889  0.6662522966462490  0.1250895335967499
  0.5401340121359368  0.8323758341211516  0.6259543850646452
  0.3768554286140144  0.2178759935575059  0.9613526504863401
  0.6308078664223871  0.7068799442222371  0.5429298246998755
  0.1305718779259095  0.7913574285659521  0.4574666579068918
  0.1254798520480165  0.7085864315201462  0.9602353435805782
  0.3695663960841529  0.2918462261842762  0.4576776384813570
  0.6296701014714330  0.7902688981878114  0.0414607241775542
  0.8664850331452030  0.2894487170721547  0.0421510884253919
  0.8694508157118364  0.2066364144522908  0.5425312735361629
  0.4476716213184417  0.8487410660042656  0.3768572344377787
  0.5535461803419963  0.3486375072985268  0.1237875626665357
  0.0508827320340401  0.1498033769662968  0.8782391264744263
  0.0526022306578255  0.3484069169620767  0.3766815713790663
  0.4498099195019591  0.6466960953980276  0.8788264287997478
  0.5533251041387146  0.1503520093213240  0.6229004816968526
  0.9469509005325207  0.6494615658209568  0.6229369367002136
  0.9450879357869084  0.8473781986139954  0.1230303520181337
  0.1407558067476842  0.2453382106502531  0.6232722023655342
  0.8647448017704988  0.7411398931927664  0.8738502392610030
  0.3597590956502472  0.7534073596807929  0.1239258568516064
  0.3591143230508891  0.7474710870447936  0.6233418568522850
  0.1393962049008763  0.2519695639061723  0.1229203076307002
  0.8601284385570551  0.7544809813004321  0.3760208067426447
  0.6398803128989172  0.2550951779821276  0.3761464811205073
  0.6389067272430111  0.2392363877485408  0.8742625681119236
  0.6307441726084377  0.7586700420829118  0.2127331892655064
  0.3690557763224618  0.2575923716381681  0.2864362576850681
  0.8718172206363946  0.2412300490445318  0.7137687757400357
  0.8693391409957840  0.2571799953660516  0.2128768595422912
  0.6276456734257394  0.7430510558408585  0.7141953299406794
  0.3679680612408802  0.2512569575472767  0.7860730277266583
  0.1342659528691712  0.7443769129556586  0.7856821569270949
  0.1309546581602490  0.7571434491376650  0.2862159060984695

             NaN             NaN             NaN
             NaN             NaN             NaN
             NaN             NaN             NaN
             NaN             NaN             NaN
             NaN             NaN             NaN
             NaN             NaN             NaN
             NaN             NaN             NaN
             NaN             NaN             NaN
             NaN             NaN             NaN
             NaN             NaN             NaN
             NaN             NaN             NaN
             NaN             NaN             NaN
             NaN             NaN             NaN
             NaN             NaN             NaN
             NaN             NaN             NaN
             NaN             NaN             NaN
             NaN             NaN             NaN
             NaN             NaN             NaN
             NaN             NaN             NaN
             NaN             NaN             NaN
             NaN             NaN             NaN
             NaN             NaN             NaN
             NaN             NaN             NaN
             NaN             NaN             NaN
             NaN             NaN             NaN
             NaN             NaN             NaN
             NaN             NaN             NaN
             NaN             NaN             NaN
             NaN             NaN             NaN
             NaN             NaN             NaN
             NaN             NaN             NaN
             NaN             NaN             NaN
             NaN             NaN             NaN
             NaN             NaN             NaN
             NaN             NaN             NaN
             NaN             NaN             NaN
             NaN             NaN             NaN
             NaN             NaN             NaN
             NaN             NaN             NaN
             NaN             NaN             NaN
             NaN             NaN             NaN
             NaN             NaN             NaN
             NaN             NaN             NaN
             NaN             NaN             NaN
             NaN             NaN             NaN
             NaN             NaN             NaN
             NaN             NaN             NaN
             NaN             NaN             NaN
             NaN             NaN             NaN
             NaN             NaN             NaN
             NaN             NaN             NaN
             NaN             NaN             NaN
             NaN             NaN             NaN
             NaN             NaN             NaN
             NaN             NaN             NaN
             NaN             NaN             NaN
             NaN             NaN             NaN
             NaN             NaN             NaN
             NaN             NaN             NaN
             NaN             NaN             NaN
             NaN             NaN             NaN
             NaN             NaN             NaN
             NaN             NaN             NaN
             NaN             NaN             NaN
             NaN             NaN             NaN
             NaN             NaN             NaN
             NaN             NaN             NaN
             NaN             NaN             NaN
             NaN             NaN             NaN
             NaN             NaN             NaN
             NaN             NaN             NaN
             NaN             NaN             NaN
             NaN             NaN             NaN
             NaN             NaN             NaN
             NaN             NaN             NaN
             NaN             NaN             NaN
             NaN             NaN             NaN
             NaN             NaN             NaN
             NaN             NaN             NaN
