Na5AlS4 bottleneck NEB image 03
  1.0
     12.1026382039385112      0.0000000000000000      0.0000000000000007
     -0.0000000000000004      7.0938170788834114      0.0000000000000004
      0.0000000000000000      0.0000000000000000     21.6510149562332330
  Na  Al  S
  39  8  32
Direct
  0.3476834079949644  0.9082991991221763  0.4986860759802893
  0.6438647492971508  0.4053139874879190  0.9991675090451211
  0.1629334723750674  0.0907547592186913  0.9937656845330956
  0.1520403586536620  0.4074590994778449  0.4984937095836027
  0.3414363672298380  0.5986559265840898  0.9965175692035108
  0.6520803490356444  0.0909106874977909  0.5012550491838068
  0.8479883423049457  0.5907016044778690  0.5012310664234594
  0.8524659930715942  0.9067425466414467  0.9983447937237524
  0.2878220667912466  0.5509098033858880  0.3626937994909875
  0.7138033760347217  0.0493176782072685  0.1354467830454296
  0.2133220755006223  0.3291209022856316  0.0145987976406949
  0.2344212830776331  0.0196611003883416  0.2132864653835400
  0.7125430436999111  0.4488541946981394  0.6382564560119312
  0.7875630595795824  0.9480309831505533  0.6379384183766521
  0.7857094714582028  0.5484986534062839  0.1360749149074396
  0.5527338982393125  0.5613169084611765  0.4350160306891686
  0.4484238972346636  0.0599408748985385  0.0673349517001663
  0.9493355449661174  0.4386451910436667  0.9347338421015640
  0.9474624097192841  0.0608510027561084  0.4347103907215616
  0.5448818909788984  0.9411882628186107  0.9340977057780708
  0.4463022050296723  0.4381217614247317  0.5661600243426353
  0.0536600809997106  0.9370742102948100  0.5658395809296024
  0.0498813960651445  0.5579445946725149  0.0663252765496971
  0.5836614469675230  0.3851752434591402  0.2532425336103762
  0.4152778445486274  0.8838436348186826  0.2469684646750329
  0.9191034490531083  0.6147965746051183  0.7529512279554584
  0.9161629906314940  0.8839463311114647  0.2528329244127066
  0.5830253807714493  0.1190619063958283  0.7526958799504322
  0.4032344036132053  0.6410020839837482  0.7523009239994649
  0.0941186812102487  0.1275866611906972  0.7508992006064019
  0.0840855603264996  0.3831460035191229  0.2466020405090384
  0.8367745073552724  0.1030877242106913  0.8304096551489308
  0.1641668707443846  0.6067298945832214  0.6686557297511427
  0.6641010315177260  0.8933127227259540  0.3303622819407352
  0.6647498336109861  0.6054734300294756  0.8310398612920112
  0.8361589401705949  0.3924030504404647  0.3303992410780440
  0.1628403758896368  0.8906045244481324  0.1681867266759397
  0.3354324355195866  0.3915996497291498  0.1685545881614661
  0.3365965012325183  0.1096611478198787  0.6693262785377666
  0.0471764347700504  0.8334188080090537  0.8739791021122205
  0.9598076369560428  0.3313462724829442  0.6257572242637575
  0.4590684192413803  0.1666988584975229  0.3742801380986354
  0.4577995902558675  0.3314062325152463  0.8742710124808254
  0.0409859921837477  0.6663690082774134  0.3740727613391364
  0.9586936344651238  0.1650133836479225  0.1247026036138198
  0.5404299427592856  0.6662522966462506  0.1250895335967501
  0.5401340121359363  0.8323758341211510  0.6259543850646415
  0.3768554286140111  0.2178759935575061  0.9613526504863381
  0.6308078664223871  0.7068799442222340  0.5429298246998754
  0.1305718779259067  0.7913574285659556  0.4574666579068937
  0.1254798520480158  0.7085864315201436  0.9602353435805805
  0.3695663960841545  0.2918462261842781  0.4576776384813563
  0.6296701014714307  0.7902688981878129  0.0414607241775508
  0.8664850331452031  0.2894487170721539  0.0421510884253923
  0.8694508157118364  0.2066364144522912  0.5425312735361618
  0.4476716213184419  0.8487410660042672  0.3768572344377769
  0.5535461803419977  0.3486375072985251  0.1237875626665373
  0.0508827320340378  0.1498033769662942  0.8782391264744294
  0.0526022306578262  0.3484069169620770  0.3766815713790657
  0.4498099195019586  0.6466960953980292  0.8788264287997455
  0.5533251041387112  0.1503520093213266  0.6229004816968540
  0.9469509005325188  0.6494615658209539  0.6229369367002157
  0.9450879357869066  0.8473781986139973  0.1230303520181319
  0.1407558067476854  0.2453382106502500  0.6232722023655340
  0.8647448017704986  0.7411398931927665  0.8738502392609999
  0.3597590956502492  0.7534073596807948  0.1239258568516068
  0.3591143230508890  0.7474710870447931  0.6233418568522869
  0.1393962049008773  0.2519695639061695  0.1229203076306996
  0.8601284385570576  0.7544809813004356  0.3760208067426476
  0.6398803128989140  0.2550951779821300  0.3761464811205050
  0.6389067272430098  0.2392363877485399  0.8742625681119212
  0.6307441726084383  0.7586700420829107  0.2127331892655049
  0.3690557763224584  0.2575923716381713  0.2864362576850645
  0.8718172206363940  0.2412300490445317  0.7137687757400393
  0.8693391409957820  0.2571799953660524  0.2128768595422939
  0.6276456734257375  0.7430510558408604  0.7141953299406796
  0.3679680612408809  0.2512569575472740  0.7860730277266574
  0.1342659528691721  0.7443769129556609  0.7856821569270952
  0.1309546581602518  0.7571434491376624  0.2862159060984703
