NMC-711 Li=0.75 (45/60 Li)
1.0
     14.2903230000      0.0000000000      0.0000000000
     -5.6920001816      9.9258783467      0.0000000000
      0.0088128164     -0.0095219935     14.0011369886
  Li  Ni  Mn  Co  O
  45  48  6  6  120
Direct
      0.0000000000      0.5990550000      0.0021050000
      0.0000000000      0.3980290000      0.0032050000
      0.0000000000      0.3332220000      0.0792170000
      0.0000000000      0.9301820000      0.0813770000
      0.0000000000      0.7347400000      0.0862990000
      0.0000000000      0.5366550000      0.0863270000
      0.0000000000      0.2672760000      0.1658730000
      0.0000000000      0.6687220000      0.1680040000
      0.0000000000      0.4671750000      0.1681680000
      0.0000000000      0.7964930000      0.2446060000
      0.0000000000      0.1988430000      0.2485070000
      0.0000000000      0.9996290000      0.2494610000
      0.0000000000      0.5999890000      0.2534550000
      0.0000000000      0.3331930000      0.3308150000
      0.0000000000      0.1337580000      0.3310540000
      0.0000000000      0.9362350000      0.3348410000
      0.0000000000      0.5348250000      0.3385740000
      0.0000000000      0.6678780000      0.4154280000
      0.0000000000      0.2632000000      0.4170790000
      0.0000000000      0.4671860000      0.4178490000
      0.0000000000      0.8681050000      0.4187230000
      0.0000000000      0.9972540000      0.4971190000
      0.0000000000      0.1984610000      0.4986000000
      0.0000000000      0.5990550000      0.5021050000
      0.0000000000      0.3332220000      0.5792170000
      0.0000000000      0.1335640000      0.5806080000
      0.0000000000      0.9301820000      0.5813770000
      0.0000000000      0.5366550000      0.5863270000
      0.0000000000      0.8669940000      0.6647930000
      0.0000000000      0.2672760000      0.6658730000
      0.0000000000      0.4671750000      0.6681680000
      0.0000000000      0.0675200000      0.6725090000
      0.0000000000      0.7964930000      0.7446060000
      0.0000000000      0.9996290000      0.7494620000
      0.0000000000      0.3992170000      0.7518320000
      0.0000000000      0.5999890000      0.7534550000
      0.0000000000      0.1337580000      0.8310540000
      0.0000000000      0.7320460000      0.8342890000
      0.0000000000      0.9362350000      0.8348410000
      0.0000000000      0.6678780000      0.9154280000
      0.0000000000      0.0669470000      0.9168050000
      0.0000000000      0.2632000000      0.9170790000
      0.0000000000      0.8681050000      0.9187230000
      0.0000000000      0.7973400000      0.9959040000
      0.0000000000      0.9972540000      0.9971190000
      0.0000000000      0.0018070000      0.0008910000
      0.0000000000      0.0018070000      0.5008910000
      0.0000000000      0.0017910000      0.2519700000
      0.0000000000      0.0017910000      0.7519700000
      0.0000000000      0.2013770000      0.2493380000
      0.0000000000      0.2013770000      0.7493370000
      0.0000000000      0.8016870000      0.0009660000
      0.0000000000      0.8016870000      0.5009660000
      0.0000000000      0.1315260000      0.3340070000
      0.0000000000      0.1315260000      0.8340070000
      0.0000000000      0.9310020000      0.3316660000
      0.0000000000      0.9310020000      0.8316660000
      0.0000000000      0.3339680000      0.3361700000
      0.0000000000      0.3339680000      0.8361700000
      0.0000000000      0.3330730000      0.0850970000
      0.0000000000      0.3330730000      0.5850970000
      0.0000000000      0.9316560000      0.0809370000
      0.0000000000      0.9316560000      0.5809360000
      0.0000000000      0.0658520000      0.4143350000
      0.0000000000      0.0658520000      0.9143350000
      0.0000000000      0.8662170000      0.4165860000
      0.0000000000      0.8662170000      0.9165860000
      0.0000000000      0.2670810000      0.4148970000
      0.0000000000      0.2670810000      0.9148970000
      0.0000000000      0.2668110000      0.1660350000
      0.0000000000      0.2668110000      0.6660350000
      0.0000000000      0.8652630000      0.1647280000
      0.0000000000      0.8652630000      0.6647280000
      0.0000000000      0.3994720000      0.9978100000
      0.0000000000      0.3994720000      0.4978100000
      0.0000000000      0.6002360000      0.0013200000
      0.0000000000      0.6002360000      0.5013200000
      0.0000000000      0.5345100000      0.0872100000
      0.0000000000      0.5345100000      0.5872100000
      0.0000000000      0.7332780000      0.0794610000
      0.0000000000      0.7332780000      0.5794610000
      0.0000000000      0.4671840000      0.1699340000
      0.0000000000      0.4671840000      0.6699340000
      0.0000000000      0.6658390000      0.1668860000
      0.0000000000      0.6658390000      0.6668860000
      0.0000000000      0.4010010000      0.2486250000
      0.0000000000      0.4010010000      0.7486250000
      0.0000000000      0.5997890000      0.2495370000
      0.0000000000      0.5997890000      0.7495370000
      0.0000000000      0.5346790000      0.3351460000
      0.0000000000      0.5346790000      0.8351460000
      0.0000000000      0.4669070000      0.4180740000
      0.0000000000      0.4669070000      0.9180740000
      0.0000000000      0.1324830000      0.0845170000
      0.0000000000      0.1324830000      0.5845170000
      0.0000000000      0.0668240000      0.1640910000
      0.0000000000      0.0668240000      0.6640910000
      0.0000000000      0.7996170000      0.2507640000
      0.0000000000      0.7996170000      0.7507640000
      0.0000000000      0.2023410000      0.9994180000
      0.0000000000      0.2023410000      0.4994180000
      0.0000000000      0.7328730000      0.3299330000
      0.0000000000      0.7328730000      0.8299330000
      0.0000000000      0.6651800000      0.4182130000
      0.0000000000      0.6651800000      0.9182140000
      0.0000000000      0.0024370000      0.0068940000
      0.0000000000      0.0024370000      0.5068940000
      0.0000000000      0.0048890000      0.0119940000
      0.0000000000      0.0048890000      0.5119940000
      0.0000000000      0.1451700000      0.0883340000
      0.0000000000      0.1451700000      0.5883340000
      0.0000000000      0.1249660000      0.0812400000
      0.0000000000      0.1249660000      0.5812400000
      0.0000000000      0.0651510000      0.1630670000
      0.0000000000      0.0651510000      0.6630670000
      0.0000000000      0.0726330000      0.1663620000
      0.0000000000      0.0726330000      0.6663620000
      0.0000000000      0.0081310000      0.2485160000
      0.0000000000      0.0081310000      0.7485160000
      0.0000000000      0.9949800000      0.2523400000
      0.0000000000      0.9949800000      0.7523400000
      0.0000000000      0.7965690000      0.2438760000
      0.0000000000      0.7965690000      0.7438760000
      0.0000000000      0.2032450000      0.2485340000
      0.0000000000      0.2032450000      0.7485340000
      0.0000000000      0.2036660000      0.0011380000
      0.0000000000      0.2036660000      0.5011380000
      0.0000000000      0.7986760000      0.9866230000
      0.0000000000      0.7986760000      0.4866230000
      0.0000000000      0.1953020000      0.0045600000
      0.0000000000      0.1953020000      0.5045600000
      0.0000000000      0.7946460000      0.9992650000
      0.0000000000      0.7946460000      0.4992650000
      0.0000000000      0.7987540000      0.2474600000
      0.0000000000      0.7987540000      0.7474600000
      0.0000000000      0.1939560000      0.2364760000
      0.0000000000      0.1939560000      0.7364760000
      0.0000000000      0.1372910000      0.3417550000
      0.0000000000      0.1372910000      0.8417550000
      0.0000000000      0.1356200000      0.3259620000
      0.0000000000      0.1356200000      0.8259620000
      0.0000000000      0.9286990000      0.3353510000
      0.0000000000      0.9286990000      0.8353510000
      0.0000000000      0.3283110000      0.3289620000
      0.0000000000      0.3283110000      0.8289620000
      0.0000000000      0.3295500000      0.0686370000
      0.0000000000      0.3295500000      0.5686370000
      0.0000000000      0.9375800000      0.0898590000
      0.0000000000      0.9375800000      0.5898590000
      0.0000000000      0.3399280000      0.0929020000
      0.0000000000      0.3399280000      0.5929020000
      0.0000000000      0.9346180000      0.0813270000
      0.0000000000      0.9346180000      0.5813270000
      0.0000000000      0.9342170000      0.3289980000
      0.0000000000      0.9342170000      0.8289980000
      0.0000000000      0.3347560000      0.3316170000
      0.0000000000      0.3347560000      0.8316180000
      0.0000000000      0.0616990000      0.4201990000
      0.0000000000      0.0616990000      0.9201990000
      0.0000000000      0.0731090000      0.4240570000
      0.0000000000      0.0731090000      0.9240570000
      0.0000000000      0.8620650000      0.4064720000
      0.0000000000      0.8620650000      0.9064720000
      0.0000000000      0.2587420000      0.4104180000
      0.0000000000      0.2587420000      0.9104180000
      0.0000000000      0.2571420000      0.1570450000
      0.0000000000      0.2571420000      0.6570450000
      0.0000000000      0.8634770000      0.1707060000
      0.0000000000      0.8634770000      0.6707060000
      0.0000000000      0.2721880000      0.1588160000
      0.0000000000      0.2721880000      0.6588160000
      0.0000000000      0.8614000000      0.1519760000
      0.0000000000      0.8614000000      0.6519760000
      0.0000000000      0.8624350000      0.4077530000
      0.0000000000      0.8624350000      0.9077530000
      0.0000000000      0.2706560000      0.4194470000
      0.0000000000      0.2706560000      0.9194470000
      0.0000000000      0.3941280000      0.9897560000
      0.0000000000      0.3941280000      0.4897560000
      0.0000000000      0.6008090000      0.9990160000
      0.0000000000      0.6008090000      0.4990160000
      0.0000000000      0.6069100000      0.0050540000
      0.0000000000      0.6069100000      0.5050540000
      0.0000000000      0.4092130000      0.0133670000
      0.0000000000      0.4092130000      0.5133670000
      0.0000000000      0.5416440000      0.0885600000
      0.0000000000      0.5416440000      0.5885600000
      0.0000000000      0.7278660000      0.0732720000
      0.0000000000      0.7278660000      0.5732720000
      0.0000000000      0.7357270000      0.0922450000
      0.0000000000      0.7357270000      0.5922450000
      0.0000000000      0.5302700000      0.0850480000
      0.0000000000      0.5302700000      0.5850480000
      0.0000000000      0.4733080000      0.1768250000
      0.0000000000      0.4733080000      0.6768250000
      0.0000000000      0.6751860000      0.1729110000
      0.0000000000      0.6751860000      0.6729110000
      0.0000000000      0.6629460000      0.1692940000
      0.0000000000      0.6629460000      0.6692940000
      0.0000000000      0.4644710000      0.1647340000
      0.0000000000      0.4644710000      0.6647340000
      0.0000000000      0.4080090000      0.2559080000
      0.0000000000      0.4080080000      0.7559080000
      0.0000000000      0.6057580000      0.2480200000
      0.0000000000      0.6057580000      0.7480200000
      0.0000000000      0.5252960000      0.3297650000
      0.0000000000      0.5252960000      0.8297650000
      0.0000000000      0.7246240000      0.3301240000
      0.0000000000      0.7246240000      0.8301240000
      0.0000000000      0.4637590000      0.4242210000
      0.0000000000      0.4637590000      0.9242210000
      0.0000000000      0.6604230000      0.4136840000
      0.0000000000      0.6604230000      0.9136840000
      0.0000000000      0.3981380000      0.2543200000
      0.0000000000      0.3981380000      0.7543200000
      0.0000000000      0.5978720000      0.2598090000
      0.0000000000      0.5978720000      0.7598090000
      0.0000000000      0.5376920000      0.3466020000
      0.0000000000      0.5376920000      0.8466020000
      0.0000000000      0.7341720000      0.3282680000
      0.0000000000      0.7341720000      0.8282680000
      0.0000000000      0.4704130000      0.4265780000
      0.0000000000      0.4704130000      0.9265780000
      0.0000000000      0.6696560000      0.4116920000
      0.0000000000      0.6696560000      0.9116920000
