Na2 Sb2 S4                              
   1.0000000000000000     
     6.3940055114325016    0.0182299858667913    2.7830077585875901
     3.9961764993204070    4.9914138476881691    2.7830077585875896
    -0.0223459432747262   -0.0107741343525405    5.9654916463139083
   Na   Sb   S 
     2     2     4
Direct
  0.6269305732532118  0.6269305732532118  0.1322648859889384
  0.3730694267467882  0.3730694267467882  0.8677351140110616
  0.8710464061800280  0.8710464061800280  0.4092431850399123
  0.1289535938199720  0.1289535938199720  0.5907568149600877
  0.1167303909448307  0.1167303909448307  0.1904879631778513
  0.6344311393988674  0.6344311393988673  0.6267513647476435
  0.8832696090551693  0.8832696090551693  0.8095120368221487
  0.3655580666625795  0.3655580666625795  0.3682297830695660

  0.00000000E+00  0.00000000E+00  0.00000000E+00
  0.00000000E+00  0.00000000E+00  0.00000000E+00
  0.00000000E+00  0.00000000E+00  0.00000000E+00
  0.00000000E+00  0.00000000E+00  0.00000000E+00
  0.00000000E+00  0.00000000E+00  0.00000000E+00
  0.00000000E+00  0.00000000E+00  0.00000000E+00
  0.00000000E+00  0.00000000E+00  0.00000000E+00
  0.00000000E+00  0.00000000E+00  0.00000000E+00
