Na5InS4 bottleneck NEB image 07         
   1.0000000000000000     
     6.8330688911791304    0.0000000000000000   -0.1272470229470229
    -0.0000000000000005    8.8359252756919275    0.0000000000000005
    -0.0048172062806638    0.0000000000000000    7.8804846921668430
   Na   In   S 
     9     2     8
Direct
  0.6626777081267790  0.5331801750204122  0.6637030641660147
  0.3465773509177623  0.3434639551879783  0.3274018440720496
  0.5576923582917175  0.1210190503347590  0.5531860775617048
  0.8920861598034122  0.1530127443380351  0.5586743898563640
  0.0298857029088566  0.9280812415894673  0.4811650540103471
  0.7633266461795927  0.0842154927453365  0.2620642724290789
  0.4808790381525938  0.8527259183507923  0.9106076952759921
  0.0712119125494581  0.9583417660224427  0.9962734626875616
  0.9826802378654662  0.4950385713283438  0.0006853832690865
  0.6557077534012663  0.7538907106167869  0.1850227051930062
  0.3372943334461169  0.2561415574534252  0.8202477430817865
  0.7708510979703789  0.7597268674809357  0.8863864371345969
  0.2169639004003585  0.2479522403602843  0.1148146623210167
  0.2289020520905538  0.0166074062482764  0.6775863452293507
  0.7659597849201063  0.5136666417490972  0.3282191493638251
  0.7818589736605119  0.9809114274990520  0.3407244645708829
  0.2197225642883396  0.4847659070612593  0.6588073538933514
  0.7053494964095748  0.2582212924274998  0.8124867844406793
  0.2898674002189168  0.7449227667806397  0.1874105521379050

             NaN             NaN             NaN
             NaN             NaN             NaN
             NaN             NaN             NaN
             NaN             NaN             NaN
             NaN             NaN             NaN
             NaN             NaN             NaN
             NaN             NaN             NaN
             NaN             NaN             NaN
             NaN             NaN             NaN
             NaN             NaN             NaN
             NaN             NaN             NaN
             NaN             NaN             NaN
             NaN             NaN             NaN
             NaN             NaN             NaN
             NaN             NaN             NaN
             NaN             NaN             NaN
             NaN             NaN             NaN
             NaN             NaN             NaN
             NaN             NaN             NaN
