Na In S                                 
   1.0000000000000000     
     6.8330688911791304    0.0000000000000000   -0.1272470229470229
    -0.0000000000000005    8.8359252756919275    0.0000000000000005
    -0.0048172062806638    0.0000000000000000    7.8804846921668430
   Na   In   S 
     9     2     8
Direct
  0.6645417976448229  0.5350963423038948  0.6649121435964958
  0.1242545671504587  0.9892376547224231  0.1105145578253826
  0.3550509837791367  0.4858351644920234  0.3167973458463180
  0.6384152495591593  0.9822698071110594  0.6623144054754846
  0.2843743089333231  0.2169418509568288  0.4837610305639615
  0.0631198014049446  0.7781002033454314  0.4736264575217888
  0.6970557062668234  0.1930964673892888  0.1333160988533706
  0.2845979920936585  0.7854268089196950  0.8730240409156735
  0.9821029277163831  0.4958043887622665  0.9999466634508352
  0.6562300387602278  0.7542930574010427  0.1847707590780345
  0.3402360154158330  0.2580950146938292  0.8420331438593038
  0.7714838578967544  0.7600712254799902  0.8867884550831562
  0.2181509462474551  0.2573742124505785  0.1029598815309001
  0.2238842314171805  0.9971177303172993  0.6954767847612615
  0.7675447772251047  0.5144939610328976  0.3281218325585513
  0.7818677697495389  0.9810764474427032  0.3408890428293390
  0.2167453728139890  0.4968904089207626  0.6669405283892047
  0.7079065316390754  0.2585511233068800  0.8144766147476190
  0.2898344753038629  0.7462324629054891  0.1867683838880083

             NaN             NaN             NaN
             NaN             NaN             NaN
             NaN             NaN             NaN
             NaN             NaN             NaN
             NaN             NaN             NaN
             NaN             NaN             NaN
             NaN             NaN             NaN
             NaN             NaN             NaN
             NaN             NaN             NaN
             NaN             NaN             NaN
             NaN             NaN             NaN
             NaN             NaN             NaN
             NaN             NaN             NaN
             NaN             NaN             NaN
             NaN             NaN             NaN
             NaN             NaN             NaN
             NaN             NaN             NaN
             NaN             NaN             NaN
             NaN             NaN             NaN
