Na In S 
 1.0000000000000000
     6.8330688911791304    0.0000000000000000   -0.1272470229470229
    -0.0000000000000005    8.8359252756919275    0.0000000000000005
    -0.0048172062806638    0.0000000000000000    7.8804846921668430
 Na  In  S  
   9   2   8
Direct
  0.6645417976448204  0.5350963423038956  0.6649121435964968
  0.1242545671504592 -0.0107623452775750  0.1105145578253813
  0.3550509837791340  0.4858351644920268  0.3167973458463207
  0.6384152495591562  0.9822698071110582  0.6623144054754837
  0.2843743089333202  0.2169418509568277  0.4837610305639593
  0.0631198014049479  0.7781002033454302  0.4736264575217911
  0.6970557062668249  0.1930964673892918  0.1333160988533731
  0.2845979920936586  0.7854268089196982  0.8730240409156758
 -0.0178970722836176  0.4958043887622653 -0.0000533365491661
  0.6562300387602279  0.7542930574010444  0.1847707590780361
  0.3402360154158354  0.2580950146938258  0.8420331438593061
  0.7714838578967509  0.7600712254799934  0.8867884550831537
  0.2181509462474578  0.2573742124505781  0.1029598815309032
  0.2238842314171826 -0.0028822696827028  0.6954767847612644
  0.7675447772251015  0.5144939610328984  0.3281218325585489
  0.7818677697495411  0.9810764474427004  0.3408890428293411
  0.2167453728139894  0.4968904089207660  0.6669405283892043
  0.7079065316390746  0.2585511233068812  0.8144766147476163
  0.2898344753038611  0.7462324629054901  0.1867683838880064
Cartesian
  0.0000000000000000  0.0000000000000000  0.0000000000000000
  0.0000000000000000  0.0000000000000000  0.0000000000000000
  0.0000000000000000  0.0000000000000000  0.0000000000000000
  0.0000000000000000  0.0000000000000000  0.0000000000000000
  0.0000000000000000  0.0000000000000000  0.0000000000000000
  0.0000000000000000  0.0000000000000000  0.0000000000000000
  0.0000000000000000  0.0000000000000000  0.0000000000000000
  0.0000000000000000  0.0000000000000000  0.0000000000000000
  0.0000000000000000  0.0000000000000000  0.0000000000000000
  0.0000000000000000  0.0000000000000000  0.0000000000000000
  0.0000000000000000  0.0000000000000000  0.0000000000000000
  0.0000000000000000  0.0000000000000000  0.0000000000000000
  0.0000000000000000  0.0000000000000000  0.0000000000000000
  0.0000000000000000  0.0000000000000000  0.0000000000000000
  0.0000000000000000  0.0000000000000000  0.0000000000000000
  0.0000000000000000  0.0000000000000000  0.0000000000000000
  0.0000000000000000  0.0000000000000000  0.0000000000000000
  0.0000000000000000  0.0000000000000000  0.0000000000000000
  0.0000000000000000  0.0000000000000000  0.0000000000000000
