Na5InS4 bottleneck NEB image 07
  1.0
      6.8330688911791304      0.0000000000000000     -0.1272470229470229
     -0.0000000000000005      8.8359252756919275      0.0000000000000005
     -0.0048172062806638      0.0000000000000000      7.8804846921668430
  Na  In  S
  9  2  8
Direct
  0.6626777081267762  0.5331801750204151  0.6637030641660182
  0.3465773509177607  0.3434639551879767  0.3274018440720478
  0.5576923582917205  0.1210190503347593  0.5531860775617014
  0.8920861598034131  0.1530127443380351  0.5586743898563659
  0.0298857029088557  0.9280812415894666  0.4811650540103488
  0.7633266461795913  0.0842154927453342  0.2620642724290814
  0.4808790381525921  0.8527259183507929  0.9106076952759888
  0.0712119125494601  0.9583417660224408  0.9962734626875582
  0.9826802378654688  0.4950385713283453  0.0006853832690867
  0.6557077534012663  0.7538907106167874  0.1850227051930037
  0.3372943334461181  0.2561415574534226  0.8202477430817872
  0.7708510979703811  0.7597268674809374  0.8863864371346002
  0.2169639004003551  0.2479522403602815  0.1148146623210196
  0.2289020520905565  0.0166074062482741  0.6775863452293521
  0.7659597849201034  0.5136666417490975  0.3282191493638245
  0.7818589736605094  0.9809114274990529  0.3407244645708826
  0.2197225642883389  0.4847659070612562  0.6588073538933522
  0.7053494964095732  0.2582212924275018  0.8124867844406766
  0.2898674002189162  0.7449227667806375  0.1874105521379053
