Na2 Sb2 S4                              
   1.0000000000000000     
     6.3940055114325016    0.0182299858667913    2.7830077585875901
     3.9961764993204070    4.9914138476881691    2.7830077585875896
    -0.0223459432747262   -0.0107741343525405    5.9654916463139083
   Na   Sb   S 
     2     2     4
Direct
  0.6269305732532143  0.6269305732532143  0.1322648859889360
  0.3730694267467858  0.3730694267467858  0.8677351140110640
  0.8710464061800266  0.8710464061800266  0.4092431850399145
  0.1289535938199735  0.1289535938199735  0.5907568149600856
  0.1167303909448288  0.1167303909448288  0.1904879631778490
  0.6344419333374171  0.6344419333374171  0.6317702169304359
  0.8832696090551713  0.8832696090551713  0.8095120368221510
  0.3655580666625828  0.3655580666625828  0.3682297830695642

  0.00000000E+00  0.00000000E+00  0.00000000E+00
  0.00000000E+00  0.00000000E+00  0.00000000E+00
  0.00000000E+00  0.00000000E+00  0.00000000E+00
  0.00000000E+00  0.00000000E+00  0.00000000E+00
  0.00000000E+00  0.00000000E+00  0.00000000E+00
  0.00000000E+00  0.00000000E+00  0.00000000E+00
  0.00000000E+00  0.00000000E+00  0.00000000E+00
  0.00000000E+00  0.00000000E+00  0.00000000E+00
