Na2 Sb2 S4
1.0
   6.4334047894992272    0.0000000000000000    2.7963386347040213
   4.0064492672065661    5.0335932945413422    2.7963386347040213
   0.0000000000000000    0.0000000000000000    5.9422776099999997
Na Sb S
2 2 4
direct
   0.6263280000000000    0.6263280000000000    0.1354440000000000 Na
   0.3736720000000000    0.3736720000000000    0.8645560000000000 Na
   0.8686260000000000    0.8686260000000000    0.4105600000000000 Sb
   0.1313740000000000    0.1313740000000000    0.5894400000000000 Sb
   0.1182990000000000    0.1182990000000000    0.1901240000000000 S
   0.6373430000000000    0.6373430000000000    0.6324460000000000 S
   0.8817010000000000    0.8817010000000000    0.8098760000000000 S
   0.3626570000000000    0.3626570000000000    0.3675540000000000 S
