S28                                     
   1.0000000000000000     
     0.0000000000000000   10.4229058945680961   -0.1851790774482918
     8.1828593913198375    0.0000000000000000    0.0000000000000000
     0.0000000000000000   -1.9221660644986345  -10.2088221948837585
   S 
    28
Direct
  0.8908980020048746  0.9249748187997778  0.6834723753555380
  0.3362026727167090  0.3834984194724445  0.5452606283509708
  0.9172840858557412  0.2145877441584392  0.9256430035387048
  0.2437183772028483  0.6071665693884456  0.7793532363351861
  0.1350342823894113  0.6048337377590198  0.2227946771914452
  0.8649657176105888  0.3951662622409799  0.7772053228085547
  0.7562816227971517  0.3928334306115544  0.2206467636648141
  0.1637973272832910  0.8834984194724445  0.4547393716490293
  0.4172840858557408  0.2854122558415608  0.9256430035387048
  0.3908980020048747  0.5750251812002222  0.6834723753555380
  0.6350342823894112  0.8951662622409802  0.2227946771914452
  0.8362026727167091  0.1165015805275556  0.5452606283509708
  0.2562816227971518  0.1071665693884455  0.2206467636648141
  0.6091019979951254  0.4249748187997779  0.3165276246444618
  0.1091019979951253  0.0750251812002222  0.3165276246444618
  0.0505880535502276  0.6920346911483177  0.3738292230660645
  0.7398094833045376  0.5822434347240746  0.0644566061494687
  0.5827159141442588  0.7145877441584393  0.0743569964613022
  0.2601905166954624  0.4177565652759253  0.9355433938505312
  0.0827159141442591  0.7854122558415607  0.0743569964613022
  0.4494119464497724  0.1920346911483176  0.6261707769339357
  0.3649657176105888  0.1048337377590200  0.7772053228085547
  0.7437183772028483  0.8928334306115544  0.7793532363351861
  0.9494119464497726  0.3079653088516824  0.6261707769339357
  0.2398094833045377  0.9177565652759254  0.0644566061494687
  0.7601905166954624  0.0822434347240748  0.9355433938505312
  0.5505880535502274  0.8079653088516823  0.3738292230660645
  0.6637973272832909  0.6165015805275555  0.4547393716490293

  0.00000000E+00  0.00000000E+00  0.00000000E+00
  0.00000000E+00  0.00000000E+00  0.00000000E+00
  0.00000000E+00  0.00000000E+00  0.00000000E+00
  0.00000000E+00  0.00000000E+00  0.00000000E+00
  0.00000000E+00  0.00000000E+00  0.00000000E+00
  0.00000000E+00  0.00000000E+00  0.00000000E+00
  0.00000000E+00  0.00000000E+00  0.00000000E+00
  0.00000000E+00  0.00000000E+00  0.00000000E+00
  0.00000000E+00  0.00000000E+00  0.00000000E+00
  0.00000000E+00  0.00000000E+00  0.00000000E+00
  0.00000000E+00  0.00000000E+00  0.00000000E+00
  0.00000000E+00  0.00000000E+00  0.00000000E+00
  0.00000000E+00  0.00000000E+00  0.00000000E+00
  0.00000000E+00  0.00000000E+00  0.00000000E+00
  0.00000000E+00  0.00000000E+00  0.00000000E+00
  0.00000000E+00  0.00000000E+00  0.00000000E+00
  0.00000000E+00  0.00000000E+00  0.00000000E+00
  0.00000000E+00  0.00000000E+00  0.00000000E+00
  0.00000000E+00  0.00000000E+00  0.00000000E+00
  0.00000000E+00  0.00000000E+00  0.00000000E+00
  0.00000000E+00  0.00000000E+00  0.00000000E+00
  0.00000000E+00  0.00000000E+00  0.00000000E+00
  0.00000000E+00  0.00000000E+00  0.00000000E+00
  0.00000000E+00  0.00000000E+00  0.00000000E+00
  0.00000000E+00  0.00000000E+00  0.00000000E+00
  0.00000000E+00  0.00000000E+00  0.00000000E+00
  0.00000000E+00  0.00000000E+00  0.00000000E+00
  0.00000000E+00  0.00000000E+00  0.00000000E+00
