Na5InS4 bottleneck NEB image 01         
   1.0000000000000000     
     6.8330688911791304    0.0000000000000000   -0.1272470229470229
    -0.0000000000000005    8.8359252756919275    0.0000000000000005
    -0.0048172062806638    0.0000000000000000    7.8804846921668430
   Na   In   S 
     9     2     8
Direct
  0.6327112795096568  0.5557820471562067  0.6773853159693601
  0.3579611528692439  0.0688060200186982  0.3176672538337471
  0.3987701072695415  0.3948167986179385  0.3535978295465370
  0.6761355755078000  0.0021177904754310  0.6660596839870507
  0.9558438154463786  0.2047336656995853  0.5075907942973430
  0.0146145747785624  0.7970220890919109  0.4557279376276853
  0.7761205484079881  0.0773806738220699  0.0435056008383157
  0.1598860444136250  0.8956385608221424  0.9431997763620359
  0.9975295429663262  0.4992918009222365  0.0000963785832155
  0.6697188849814353  0.7458932248804828  0.1918566434847975
  0.3292874178750367  0.2555462595385549  0.8089028195394192
  0.7958591736068641  0.7690588914558418  0.9000091964097265
  0.2024022920763855  0.2320365561867206  0.1001582367037770
  0.2344081174473231  0.0230945842902415  0.6441105263509357
  0.7820713865408422  0.5155149157768832  0.3469743809181480
  0.7671269073047355  0.9765420995421366  0.3584994422482737
  0.2158832826301946  0.4842583726313521  0.6511705862101422
  0.6948017674159317  0.2694696367869014  0.7998215218277807
  0.3045101963238039  0.7309796883696436  0.2001614239323644

             NaN             NaN             NaN
             NaN             NaN             NaN
             NaN             NaN             NaN
             NaN             NaN             NaN
             NaN             NaN             NaN
             NaN             NaN             NaN
             NaN             NaN             NaN
             NaN             NaN             NaN
             NaN             NaN             NaN
             NaN             NaN             NaN
             NaN             NaN             NaN
             NaN             NaN             NaN
             NaN             NaN             NaN
             NaN             NaN             NaN
             NaN             NaN             NaN
             NaN             NaN             NaN
             NaN             NaN             NaN
             NaN             NaN             NaN
             NaN             NaN             NaN
