Na In S                                 
   1.0000000000000000     
     6.8330688911791304    0.0000000000000000   -0.1272470229470229
    -0.0000000000000005    8.8359252756919275    0.0000000000000005
    -0.0048172062806638    0.0000000000000000    7.8804846921668430
   Na   In   S 
     9     2     8
Direct
  0.6317547126546401  0.5573346474606566  0.6782626691247273
  0.3250991145922981  0.0168610880141742  0.2860779343533650
  0.3679792100396142  0.4452877327056726  0.3212302676104741
  0.6399007774811025  0.9778434172247188  0.6806289088050548
  0.8532646244899524  0.2412640427942634  0.5057090858178910
  0.0574799383998226  0.7534883686996210  0.4857580452407859
  0.8056271721474104  0.1265058610667111  0.0747121007647280
  0.1913664458208473  0.8699126979429792  0.9250473331494860
  0.9972307830622000  0.4993752006183598  0.0000124884869663
  0.6694173619212123  0.7463397256296744  0.1915179783554990
  0.3284597232811066  0.2556013918420774  0.8094789299390186
  0.7956838452119470  0.7691356676411161  0.9000308637285102
  0.2012227433523535  0.2341563099261705  0.0984327221762911
  0.2338161065061968  0.0228790510057735  0.6450490305917995
  0.7810365260228025  0.5193627416431852  0.3445518814574129
  0.7672953068059982  0.9767179032619708  0.3583078945045770
  0.2155674136209385  0.4843795413460086  0.6513391846532599
  0.6907530327184759  0.2701493344801449  0.8083019617500540
  0.3042536874666979  0.7312623897151269  0.1999430075438582

             NaN             NaN             NaN
             NaN             NaN             NaN
             NaN             NaN             NaN
             NaN             NaN             NaN
             NaN             NaN             NaN
             NaN             NaN             NaN
             NaN             NaN             NaN
             NaN             NaN             NaN
             NaN             NaN             NaN
             NaN             NaN             NaN
             NaN             NaN             NaN
             NaN             NaN             NaN
             NaN             NaN             NaN
             NaN             NaN             NaN
             NaN             NaN             NaN
             NaN             NaN             NaN
             NaN             NaN             NaN
             NaN             NaN             NaN
             NaN             NaN             NaN
