Na5InS4 bottleneck NEB image 01
  1.0
      6.8330688911791304      0.0000000000000000     -0.1272470229470229
     -0.0000000000000005      8.8359252756919275      0.0000000000000005
     -0.0048172062806638      0.0000000000000000      7.8804846921668430
  Na  In  S
  9  2  8
Direct
  0.6327112795096543  0.5557820471562062  0.6773853159693598
  0.3579611528692414  0.0688060200186977  0.3176672538337494
  0.3987701072695450  0.3948167986179380  0.3535978295465382
  0.6761355755078030  0.0021177904754310  0.6660596839870534
  0.9558438154463814  0.2047336656995868  0.5075907942973418
  0.0146145747785641  0.7970220890919120  0.4557279376276831
  0.7761205484079849  0.0773806738220721  0.0435056008383162
  0.1598860444136238  0.8956385608221444  0.9431997763620367
  0.9975295429663243  0.4992918009222335  0.0000963785832176
  0.6697188849814326  0.7458932248804846  0.1918566434847955
  0.3292874178750375  0.2555462595385568  0.8089028195394203
  0.7958591736068629  0.7690588914558433  0.9000091964097269
  0.2024022920763887  0.2320365561867176  0.1001582367037791
  0.2344081174473240  0.0230945842902400  0.6441105263509352
  0.7820713865408438  0.5155149157768819  0.3469743809181460
  0.7671269073047370  0.9765420995421356  0.3584994422482718
  0.2158832826301964  0.4842583726313512  0.6511705862101419
  0.6948017674159330  0.2694696367868982  0.7998215218277833
  0.3045101963238013  0.7309796883696429  0.2001614239323616
