Na In S 
 1.0000000000000000
     6.8330688911791304    0.0000000000000000   -0.1272470229470229
    -0.0000000000000005    8.8359252756919275    0.0000000000000005
    -0.0048172062806638    0.0000000000000000    7.8804846921668430
 Na  In  S  
   9   2   8
Direct
  0.6317547126546393  0.5573346474606592  0.6782626691247290
  0.3250991145923013  0.0168610880141719  0.2860779343533649
  0.3679792100396117  0.4452877327056715  0.3212302676104768
  0.6399007774811052  0.9778434172247163  0.6806289088050549
  0.8532646244899539  0.2412640427942656  0.5057090858178934
  0.0574799383998260  0.7534883686996241  0.4857580452407856
  0.8056271721474125  0.1265058610667096  0.0747121007647297
  0.1913664458208453  0.8699126979429807  0.9250473331494837
 -0.0027692169377965  0.4993752006183581  0.0000124884869660
  0.6694173619212115  0.7463397256296712  0.1915179783555007
  0.3284597232811053  0.2556013918420783  0.8094789299390177
  0.7956838452119498  0.7691356676411181  0.9000308637285095
  0.2012227433523512  0.2341563099261670  0.0984327221762945
  0.2338161065061963  0.0228790510057703  0.6450490305917981
  0.7810365260228019  0.5193627416431823  0.3445518814574106
  0.7672953068059992  0.9767179032619726  0.3583078945045783
  0.2155674136209417  0.4843795413460079  0.6513391846532566
  0.6907530327184725  0.2701493344801484  0.8083019617500551
  0.3042536874666978  0.7312623897151299  0.1999430075438584
Cartesian
  0.0000000000000000  0.0000000000000000  0.0000000000000000
  0.0000000000000000  0.0000000000000000  0.0000000000000000
  0.0000000000000000  0.0000000000000000  0.0000000000000000
  0.0000000000000000  0.0000000000000000  0.0000000000000000
  0.0000000000000000  0.0000000000000000  0.0000000000000000
  0.0000000000000000  0.0000000000000000  0.0000000000000000
  0.0000000000000000  0.0000000000000000  0.0000000000000000
  0.0000000000000000  0.0000000000000000  0.0000000000000000
  0.0000000000000000  0.0000000000000000  0.0000000000000000
  0.0000000000000000  0.0000000000000000  0.0000000000000000
  0.0000000000000000  0.0000000000000000  0.0000000000000000
  0.0000000000000000  0.0000000000000000  0.0000000000000000
  0.0000000000000000  0.0000000000000000  0.0000000000000000
  0.0000000000000000  0.0000000000000000  0.0000000000000000
  0.0000000000000000  0.0000000000000000  0.0000000000000000
  0.0000000000000000  0.0000000000000000  0.0000000000000000
  0.0000000000000000  0.0000000000000000  0.0000000000000000
  0.0000000000000000  0.0000000000000000  0.0000000000000000
  0.0000000000000000  0.0000000000000000  0.0000000000000000
