NMC-1011 Li=0.75 (2/3 Li)
1.0
      4.9246200000      0.0000000000      0.0000000000
      0.0000000000      8.5309000000      0.0000000000
      1.6478952049      0.0000000000      4.7056605629
  Li  Ni  Mn  Co  O
  2  1  1  1  3
Direct
      0.0000000000      0.6660900000      0.0000000000
      0.0000000000      0.9946400000      0.0000000000
      0.0000000000      0.5004300000      0.5000000000
      0.0000000000      0.1667000000      0.5000000000
      0.0000000000      0.8335300000      0.5000000000
      0.7235600000      0.4997900000      0.2731900000
      0.2511900000      0.3243700000      0.2766500000
      0.7497300000      0.1767500000      0.2763100000
