Na Al S                                 
   1.0000000000000000     
    12.1026382039385112    0.0000000000000000    0.0000000000000007
    -0.0000000000000004    7.0938170788834114    0.0000000000000004
     0.0000000000000000    0.0000000000000000   21.6510149562332330
   Na   Al   S 
    39     8    32
Direct
  0.3476141257731413  0.9084666222180573  0.4987055823736597
  0.6430198410194023  0.4048191207117782  0.9993561926623116
  0.1639683386010446  0.0889057913260771  0.9931204369219842
  0.1519897605721354  0.4072609346238707  0.4984445815016230
  0.3424531912028712  0.6005333737151091  0.9971651735832197
  0.6521127317464348  0.0909387780946318  0.5012688306473905
  0.8479993075836063  0.5906428978215104  0.5012362328240343
  0.8517071740584754  0.9071101809200925  0.9981550662473353
  0.2878290432876653  0.5509383722455468  0.3627059078707404
  0.7137419652243153  0.0494565843068813  0.1352861369175500
  0.2283141501537642  0.5482183242932877  0.8653343005767127
  0.2122120587624181  0.0504788540641030  0.3625319667763165
  0.7125674936577795  0.4490342967523304  0.6383470873738588
  0.7875708739873133  0.9479159600881459  0.6379045225400617
  0.7856181036158887  0.5482807216051881  0.1362378947058502
  0.5527690380836958  0.5613643820999030  0.4350844695971432
  0.4480781203020143  0.0603330877800445  0.0675479709010247
  0.9478673308444314  0.4381074919108485  0.9348881611099458
  0.9474919067590406  0.0607459304379532  0.4346500212656252
  0.5434942727920671  0.9417818829115987  0.9339317036511545
  0.4462528947811180  0.4383316851955215  0.5662337449305141
  0.0536267661194074  0.9369188082411668  0.5657672838372889
  0.0494911440278898  0.5574183815937914  0.0661135095297070
  0.5836478954076583  0.3854018207624605  0.2533214222952367
  0.4151399980481969  0.8839761147323841  0.2470287669858990
  0.9196216375830559  0.6139201743092357  0.7530132125449853
  0.9161528581417713  0.8837422840766607  0.2527696382819826
  0.5834108107002578  0.1199015426372441  0.7526582657813066
  0.4025898385466604  0.6442078558503184  0.7526384029226563
  0.0936696116024578  0.1245868486150385  0.7505984334383555
  0.0839802732867057  0.3830106909782458  0.2465183753039071
  0.8371139691523339  0.1026640474281919  0.8302553059388131
  0.1643423647508442  0.6061509095471251  0.6685044535528419
  0.6641564982047896  0.8934730935441024  0.3303380169222265
  0.6650959167274664  0.6059399913916081  0.8311802179074661
  0.8362123295235122  0.3922019657652243  0.3304199694399799
  0.1624689445521028  0.8903705109324136  0.1681107791649410
  0.3350625868358534  0.3917753406224094  0.1686105220358485
  0.3367857577535744  0.1103466074928150  0.6694491005251635
  0.0483224777491529  0.8339820219443794  0.8739179726125244
  0.9598187532454858  0.3311767824378080  0.6257124492414974
  0.4590828551949997  0.1667285488726833  0.3743088877390761
  0.4589131115494212  0.3309253270850192  0.8743280806264195
  0.0410016534624731  0.6662859660565701  0.3740315020340219
  0.9584978928000254  0.1646923105096434  0.1246408358975160
  0.5402402346749184  0.6665034993655539  0.1251505390004581
  0.5401121545876961  0.8326035304542572  0.6260000783413702
  0.3773697714033233  0.2201485773568308  0.9616170659719074
  0.6308555372212510  0.7069143994363571  0.5430263065857375
  0.1305959382885860  0.7912366091389060  0.4574243354478114
  0.1259451373762701  0.7063439827703988  0.9599870311177199
  0.3696017339448403  0.2919080955130227  0.4577065539348411
  0.6287969007590277  0.7903982045803986  0.0412704062396188
  0.8656225907974644  0.2892156717541567  0.0423330817458378
  0.8695241781476852  0.2066171894051934  0.5424480066925028
  0.4477214191359593  0.8487710473070749  0.3768798109817411
  0.5532754845679975  0.3488894628481987  0.1239500415416970
  0.0509861723406999  0.1506626397594104  0.8781096993933417
  0.0526717750409702  0.3483274062140183  0.3766379394451818
  0.4499158848022802  0.6459062248469678  0.8789691609592722
  0.5534091080282124  0.1505539928584199  0.6228981143898267
  0.9470062531187367  0.6493287194662116  0.6229543691606452
  0.9447938924715871  0.8470458733561372  0.1228791628131063
  0.1407568032866919  0.2449370515267475  0.6232354379016201
  0.8655732439512462  0.7417007892072789  0.8737265732186543
  0.3595761654161507  0.7537350085934591  0.1241269154184081
  0.3590763813352140  0.7479767748329849  0.6233488430850684
  0.1392088851656723  0.2515773708565234  0.1227135589928707
  0.8601283746254182  0.7543497762251832  0.3760012232334020
  0.6398872546798415  0.2551908066565147  0.3761695355436174
  0.6397193752326515  0.2387250501456251  0.8743610084888829
  0.6307568927290603  0.7589956219856404  0.2126772155103609
  0.3690639955806532  0.2576621653363773  0.2864703568987039
  0.8717580708478749  0.2408983857035523  0.7136756763708547
  0.8693594579228474  0.2568263517074172  0.2129302145112675
  0.6274761660402532  0.7434372345096989  0.7143046629007941
  0.3683734655655257  0.2529442299061913  0.7861622177931977
  0.1347751416397003  0.7428099137813291  0.7856031547260969
  0.1309660186212582  0.7570366189801376  0.2861762436553050

             NaN             NaN             NaN
             NaN             NaN             NaN
             NaN             NaN             NaN
             NaN             NaN             NaN
             NaN             NaN             NaN
             NaN             NaN             NaN
             NaN             NaN             NaN
             NaN             NaN             NaN
             NaN             NaN             NaN
             NaN             NaN             NaN
             NaN             NaN             NaN
             NaN             NaN             NaN
             NaN             NaN             NaN
             NaN             NaN             NaN
             NaN             NaN             NaN
             NaN             NaN             NaN
             NaN             NaN             NaN
             NaN             NaN             NaN
             NaN             NaN             NaN
             NaN             NaN             NaN
             NaN             NaN             NaN
             NaN             NaN             NaN
             NaN             NaN             NaN
             NaN             NaN             NaN
             NaN             NaN             NaN
             NaN             NaN             NaN
             NaN             NaN             NaN
             NaN             NaN             NaN
             NaN             NaN             NaN
             NaN             NaN             NaN
             NaN             NaN             NaN
             NaN             NaN             NaN
             NaN             NaN             NaN
             NaN             NaN             NaN
             NaN             NaN             NaN
             NaN             NaN             NaN
             NaN             NaN             NaN
             NaN             NaN             NaN
             NaN             NaN             NaN
             NaN             NaN             NaN
             NaN             NaN             NaN
             NaN             NaN             NaN
             NaN             NaN             NaN
             NaN             NaN             NaN
             NaN             NaN             NaN
             NaN             NaN             NaN
             NaN             NaN             NaN
             NaN             NaN             NaN
             NaN             NaN             NaN
             NaN             NaN             NaN
             NaN             NaN             NaN
             NaN             NaN             NaN
             NaN             NaN             NaN
             NaN             NaN             NaN
             NaN             NaN             NaN
             NaN             NaN             NaN
             NaN             NaN             NaN
             NaN             NaN             NaN
             NaN             NaN             NaN
             NaN             NaN             NaN
             NaN             NaN             NaN
             NaN             NaN             NaN
             NaN             NaN             NaN
             NaN             NaN             NaN
             NaN             NaN             NaN
             NaN             NaN             NaN
             NaN             NaN             NaN
             NaN             NaN             NaN
             NaN             NaN             NaN
             NaN             NaN             NaN
             NaN             NaN             NaN
             NaN             NaN             NaN
             NaN             NaN             NaN
             NaN             NaN             NaN
             NaN             NaN             NaN
             NaN             NaN             NaN
             NaN             NaN             NaN
             NaN             NaN             NaN
             NaN             NaN             NaN
