Na Al S 
 1.0000000000000000
    12.1026382039385112    0.0000000000000000    0.0000000000000007
    -0.0000000000000004    7.0938170788834114    0.0000000000000004
     0.0000000000000000    0.0000000000000000   21.6510149562332330
 Na  Al  S  
  39   8  32
Direct
  0.3476141257731441  0.9084666222180545  0.4987055823736580
  0.6430198410194039  0.4048191207117774 -0.0006438073376892
  0.1639683386010463  0.0889057913260802  0.9931204369219870
  0.1519897605721384  0.4072609346238742  0.4984445815016196
  0.3424531912028742  0.6005333737151126  0.9971651735832178
  0.6521127317464332  0.0909387780946350  0.5012688306473881
  0.8479993075836081  0.5906428978215114  0.5012362328240324
  0.8517071740584741  0.9071101809200933 -0.0018449337526667
  0.2878290432876678  0.5509383722455488  0.3627059078707421
  0.7137419652243121  0.0494565843068842  0.1352861369175525
  0.2283141501537609  0.5482183242932905  0.8653343005767148
  0.2122120587624165  0.0504788540641031  0.3625319667763146
  0.7125674936577771  0.4490342967523298  0.6383470873738607
  0.7875708739873107  0.9479159600881433  0.6379045225400586
  0.7856181036158888  0.5482807216051864  0.1362378947058537
  0.5527690380836966  0.5613643820999042  0.4350844695971401
  0.4480781203020170  0.0603330877800463  0.0675479709010262
  0.9478673308444300  0.4381074919108466  0.9348881611099445
  0.9474919067590438  0.0607459304379535  0.4346500212656270
  0.5434942727920644  0.9417818829115996  0.9339317036511570
  0.4462528947811176  0.4383316851955225  0.5662337449305164
  0.0536267661194088  0.9369188082411684  0.5657672838372865
  0.0494911440278904  0.5574183815937891  0.0661135095297037
  0.5836478954076552  0.3854018207624617  0.2533214222952374
  0.4151399980481961  0.8839761147323807  0.2470287669858963
  0.9196216375830568  0.6139201743092345  0.7530132125449831
  0.9161528581417745  0.8837422840766642  0.2527696382819803
  0.5834108107002579  0.1199015426372473  0.7526582657813067
  0.4025898385466635  0.6442078558503217  0.7526384029226574
  0.0936696116024546  0.1245868486150379  0.7505984334383566
  0.0839802732867045  0.3830106909782425  0.2465183753039066
  0.8371139691523350  0.1026640474281929  0.8302553059388116
  0.1643423647508428  0.6061509095471250  0.6685044535528407
  0.6641564982047915  0.8934730935440998  0.3303380169222258
  0.6650959167274658  0.6059399913916071  0.8311802179074675
  0.8362123295235155  0.3922019657652254  0.3304199694399810
  0.1624689445521029  0.8903705109324164  0.1681107791649390
  0.3350625868358535  0.3917753406224095  0.1686105220358518
  0.3367857577535721  0.1103466074928166  0.6694491005251665
  0.0483224777491502  0.8339820219443780  0.8739179726125227
  0.9598187532454878  0.3311767824378095  0.6257124492414960
  0.4590828551950001  0.1667285488726817  0.3743088877390784
  0.4589131115494178  0.3309253270850204  0.8743280806264224
  0.0410016534624729  0.6662859660565681  0.3740315020340228
  0.9584978928000243  0.1646923105096425  0.1246408358975125
  0.5402402346749153  0.6665034993655560  0.1251505390004586
  0.5401121545876941  0.8326035304542564  0.6260000783413671
  0.3773697714033232  0.2201485773568323  0.9616170659719101
  0.6308555372212512  0.7069143994363596  0.5430263065857397
  0.1305959382885864  0.7912366091389054  0.4574243354478130
  0.1259451373762713  0.7063439827704011  0.9599870311177227
  0.3696017339448374  0.2919080955130218  0.4577065539348446
  0.6287969007590312  0.7903982045803976  0.0412704062396204
  0.8656225907974632  0.2892156717541577  0.0423330817458350
  0.8695241781476821  0.2066171894051903  0.5424480066925021
  0.4477214191359586  0.8487710473070754  0.3768798109817437
  0.5532754845679975  0.3488894628481959  0.1239500415416937
  0.0509861723406989  0.1506626397594101  0.8781096993933388
  0.0526717750409706  0.3483274062140164  0.3766379394451800
  0.4499158848022793  0.6459062248469692  0.8789691609592746
  0.5534091080282142  0.1505539928584232  0.6228981143898297
  0.9470062531187390  0.6493287194662152  0.6229543691606481
  0.9447938924715902  0.8470458733561385  0.1228791628131044
  0.1407568032866931  0.2449370515267480  0.6232354379016218
  0.8655732439512468  0.7417007892072799  0.8737265732186567
  0.3595761654161507  0.7537350085934615  0.1241269154184075
  0.3590763813352122  0.7479767748329860  0.6233488430850652
  0.1392088851656717  0.2515773708565238  0.1227135589928703
  0.8601283746254204  0.7543497762251832  0.3760012232333996
  0.6398872546798426  0.2551908066565117  0.3761695355436174
  0.6397193752326542  0.2387250501456237  0.8743610084888807
  0.6307568927290582  0.7589956219856420  0.2126772155103583
  0.3690639955806544  0.2576621653363761  0.2864703568987041
  0.8717580708478736  0.2408983857035529  0.7136756763708559
  0.8693594579228441  0.2568263517074151  0.2129302145112698
  0.6274761660402514  0.7434372345096999  0.7143046629007908
  0.3683734655655280  0.2529442299061880  0.7861622177931953
  0.1347751416397002  0.7428099137813288  0.7856031547260968
  0.1309660186212566  0.7570366189801354  0.2861762436553038
Cartesian
  0.0000000000000000  0.0000000000000000  0.0000000000000000
  0.0000000000000000  0.0000000000000000  0.0000000000000000
  0.0000000000000000  0.0000000000000000  0.0000000000000000
  0.0000000000000000  0.0000000000000000  0.0000000000000000
  0.0000000000000000  0.0000000000000000  0.0000000000000000
  0.0000000000000000  0.0000000000000000  0.0000000000000000
  0.0000000000000000  0.0000000000000000  0.0000000000000000
  0.0000000000000000  0.0000000000000000  0.0000000000000000
  0.0000000000000000  0.0000000000000000  0.0000000000000000
  0.0000000000000000  0.0000000000000000  0.0000000000000000
  0.0000000000000000  0.0000000000000000  0.0000000000000000
  0.0000000000000000  0.0000000000000000  0.0000000000000000
  0.0000000000000000  0.0000000000000000  0.0000000000000000
  0.0000000000000000  0.0000000000000000  0.0000000000000000
  0.0000000000000000  0.0000000000000000  0.0000000000000000
  0.0000000000000000  0.0000000000000000  0.0000000000000000
  0.0000000000000000  0.0000000000000000  0.0000000000000000
  0.0000000000000000  0.0000000000000000  0.0000000000000000
  0.0000000000000000  0.0000000000000000  0.0000000000000000
  0.0000000000000000  0.0000000000000000  0.0000000000000000
  0.0000000000000000  0.0000000000000000  0.0000000000000000
  0.0000000000000000  0.0000000000000000  0.0000000000000000
  0.0000000000000000  0.0000000000000000  0.0000000000000000
  0.0000000000000000  0.0000000000000000  0.0000000000000000
  0.0000000000000000  0.0000000000000000  0.0000000000000000
  0.0000000000000000  0.0000000000000000  0.0000000000000000
  0.0000000000000000  0.0000000000000000  0.0000000000000000
  0.0000000000000000  0.0000000000000000  0.0000000000000000
  0.0000000000000000  0.0000000000000000  0.0000000000000000
  0.0000000000000000  0.0000000000000000  0.0000000000000000
  0.0000000000000000  0.0000000000000000  0.0000000000000000
  0.0000000000000000  0.0000000000000000  0.0000000000000000
  0.0000000000000000  0.0000000000000000  0.0000000000000000
  0.0000000000000000  0.0000000000000000  0.0000000000000000
  0.0000000000000000  0.0000000000000000  0.0000000000000000
  0.0000000000000000  0.0000000000000000  0.0000000000000000
  0.0000000000000000  0.0000000000000000  0.0000000000000000
  0.0000000000000000  0.0000000000000000  0.0000000000000000
  0.0000000000000000  0.0000000000000000  0.0000000000000000
  0.0000000000000000  0.0000000000000000  0.0000000000000000
  0.0000000000000000  0.0000000000000000  0.0000000000000000
  0.0000000000000000  0.0000000000000000  0.0000000000000000
  0.0000000000000000  0.0000000000000000  0.0000000000000000
  0.0000000000000000  0.0000000000000000  0.0000000000000000
  0.0000000000000000  0.0000000000000000  0.0000000000000000
  0.0000000000000000  0.0000000000000000  0.0000000000000000
  0.0000000000000000  0.0000000000000000  0.0000000000000000
  0.0000000000000000  0.0000000000000000  0.0000000000000000
  0.0000000000000000  0.0000000000000000  0.0000000000000000
  0.0000000000000000  0.0000000000000000  0.0000000000000000
  0.0000000000000000  0.0000000000000000  0.0000000000000000
  0.0000000000000000  0.0000000000000000  0.0000000000000000
  0.0000000000000000  0.0000000000000000  0.0000000000000000
  0.0000000000000000  0.0000000000000000  0.0000000000000000
  0.0000000000000000  0.0000000000000000  0.0000000000000000
  0.0000000000000000  0.0000000000000000  0.0000000000000000
  0.0000000000000000  0.0000000000000000  0.0000000000000000
  0.0000000000000000  0.0000000000000000  0.0000000000000000
  0.0000000000000000  0.0000000000000000  0.0000000000000000
  0.0000000000000000  0.0000000000000000  0.0000000000000000
  0.0000000000000000  0.0000000000000000  0.0000000000000000
  0.0000000000000000  0.0000000000000000  0.0000000000000000
  0.0000000000000000  0.0000000000000000  0.0000000000000000
  0.0000000000000000  0.0000000000000000  0.0000000000000000
  0.0000000000000000  0.0000000000000000  0.0000000000000000
  0.0000000000000000  0.0000000000000000  0.0000000000000000
  0.0000000000000000  0.0000000000000000  0.0000000000000000
  0.0000000000000000  0.0000000000000000  0.0000000000000000
  0.0000000000000000  0.0000000000000000  0.0000000000000000
  0.0000000000000000  0.0000000000000000  0.0000000000000000
  0.0000000000000000  0.0000000000000000  0.0000000000000000
  0.0000000000000000  0.0000000000000000  0.0000000000000000
  0.0000000000000000  0.0000000000000000  0.0000000000000000
  0.0000000000000000  0.0000000000000000  0.0000000000000000
  0.0000000000000000  0.0000000000000000  0.0000000000000000
  0.0000000000000000  0.0000000000000000  0.0000000000000000
  0.0000000000000000  0.0000000000000000  0.0000000000000000
  0.0000000000000000  0.0000000000000000  0.0000000000000000
  0.0000000000000000  0.0000000000000000  0.0000000000000000
