Na1 Si1 S2
1.0
   3.5751908819952569    0.0000000000000000    0.0000000000000000
   0.0000000000000000    3.5751908819952569    0.0000000000000000
  -0.0000000000000000    0.0000000000000000    6.3527846459636832
Na Si S
1 1 2
direct
   0.4999999391872549    0.4999999391872549    0.4622162031871536 Na
   0.0000000000000000    0.0000000000000000    0.9262550187920707 Si
   0.0000000000000000    0.0000000000000000    0.5996130822452104 S
   0.4999999391872549    0.4999999391872549    0.0219150096957834 S
