Na8 S4
1.0
   6.4983089786517505    0.0000000000000000    0.0000000000000004
   0.0000000000000010    6.4983089786517505    0.0000000000000004
   0.0000000000000000    0.0000000000000000    6.4983089786517505
Na S
8 4
direct
   0.2500000000000000    0.2500000000000000    0.2500000000000000 Na+
   0.2500000000000000    0.7500000000000000    0.2500000000000000 Na+
   0.2500000000000000    0.7500000000000000    0.7500000000000000 Na+
   0.2500000000000000    0.2500000000000000    0.7500000000000000 Na+
   0.7500000000000000    0.2500000000000000    0.7500000000000000 Na+
   0.7500000000000000    0.7500000000000000    0.7500000000000000 Na+
   0.7500000000000000    0.7500000000000000    0.2500000000000000 Na+
   0.7500000000000000    0.2500000000000000    0.2500000000000000 Na+
   0.0000000000000000    0.0000000000000000    0.0000000000000000 S2-
   0.0000000000000000    0.5000000000000000    0.5000000000000000 S2-
   0.5000000000000000    0.0000000000000000    0.5000000000000000 S2-
   0.5000000000000000    0.5000000000000000    0.0000000000000000 S2-
