Na8 S4                                  
   1.0000000000000000     
     4.3331335559896660    0.0000000000000000    0.0000000000000003
     0.0000000000000011    7.1490847299435423    0.0000000000000004
     0.0000000000000000    0.0000000000000000    8.4009214167362796
   Na   S 
     8     4
Direct
  0.2500000000000000  0.6451041965501716  0.0728762728044146
  0.7500000000000000  0.9787862068321687  0.1678281704524878
  0.7500000000000000  0.4787862068321687  0.3321718295475122
  0.7500000000000000  0.8548958034498284  0.5728762728044146
  0.2500000000000000  0.0212137931678313  0.8321718295475122
  0.7500000000000000  0.3548958034498284  0.9271237271955854
  0.2500000000000000  0.1451041965501716  0.4271237271955854
  0.2500000000000000  0.5212137931678313  0.6678281704524878
  0.2500000000000000  0.2530518105508150  0.1124118301556365
  0.2500000000000000  0.7530518105508150  0.3875881698443635
  0.7500000000000000  0.2469481894491850  0.6124118301556365
  0.7500000000000000  0.7469481894491850  0.8858026514165733

  0.00000000E+00  0.00000000E+00  0.00000000E+00
  0.00000000E+00  0.00000000E+00  0.00000000E+00
  0.00000000E+00  0.00000000E+00  0.00000000E+00
  0.00000000E+00  0.00000000E+00  0.00000000E+00
  0.00000000E+00  0.00000000E+00  0.00000000E+00
  0.00000000E+00  0.00000000E+00  0.00000000E+00
  0.00000000E+00  0.00000000E+00  0.00000000E+00
  0.00000000E+00  0.00000000E+00  0.00000000E+00
  0.00000000E+00  0.00000000E+00  0.00000000E+00
  0.00000000E+00  0.00000000E+00  0.00000000E+00
  0.00000000E+00  0.00000000E+00  0.00000000E+00
  0.00000000E+00  0.00000000E+00  0.00000000E+00
