Na8 S4
1.0
   4.2926825199999996    0.0000000000000000    0.0000000000000003
   0.0000000000000011    7.0639744699999998    0.0000000000000004
   0.0000000000000000    0.0000000000000000    8.3111071100000000
Na S
8 4
direct
   0.2500000000000000    0.6449810000000000    0.0729390800000000 Na+
   0.7500000000000000    0.9789736200000000    0.1679627500000000 Na+
   0.7500000000000000    0.4789736200000001    0.3320372500000000 Na+
   0.7500000000000000    0.8550190000000000    0.5729390800000000 Na+
   0.2500000000000000    0.0210263800000000    0.8320372500000000 Na+
   0.7500000000000000    0.3550190000000000    0.9270609200000000 Na+
   0.2500000000000000    0.1449810000000000    0.4270609200000000 Na+
   0.2500000000000000    0.5210263800000000    0.6679627500000000 Na+
   0.2500000000000000    0.2531072000000001    0.1123357999999999 S2-
   0.2500000000000000    0.7531072000000001    0.3876642000000001 S2-
   0.7500000000000000    0.2468927999999999    0.6123357999999999 S2-
   0.7500000000000000    0.7468927999999999    0.8876642000000001 S2-
