Na8 S4                                  
   1.0000000000000000     
     4.2926825199999996    0.0000000000000000    0.0000000000000003
     0.0000000000000011    7.0639744699999998    0.0000000000000004
     0.0000000000000000    0.0000000000000000    8.3111071100000000
   Na   S 
     8     4
Direct
  0.2500000000000000  0.6449810000000014  0.0729390799999976
  0.7500000000000000  0.9789736199999979  0.1679627500000009
  0.7500000000000000  0.4789736199999979  0.3320372499999991
  0.7500000000000000  0.8550189999999986  0.5729390799999976
  0.2500000000000000  0.0210263800000021  0.8320372499999991
  0.7500000000000000  0.3550189999999986  0.9270609200000024
  0.2500000000000000  0.1449810000000014  0.4270609200000024
  0.2500000000000000  0.5210263800000021  0.6679627500000009
  0.2500000000000000  0.2531072000000023  0.1123357999999968
  0.2500000000000000  0.7531072000000023  0.3876642000000032
  0.7500000000000000  0.2468927999999977  0.6123357999999968
  0.7500000000000000  0.7468927999999977  0.8876642000000032

  0.00000000E+00  0.00000000E+00  0.00000000E+00
  0.00000000E+00  0.00000000E+00  0.00000000E+00
  0.00000000E+00  0.00000000E+00  0.00000000E+00
  0.00000000E+00  0.00000000E+00  0.00000000E+00
  0.00000000E+00  0.00000000E+00  0.00000000E+00
  0.00000000E+00  0.00000000E+00  0.00000000E+00
  0.00000000E+00  0.00000000E+00  0.00000000E+00
  0.00000000E+00  0.00000000E+00  0.00000000E+00
  0.00000000E+00  0.00000000E+00  0.00000000E+00
  0.00000000E+00  0.00000000E+00  0.00000000E+00
  0.00000000E+00  0.00000000E+00  0.00000000E+00
  0.00000000E+00  0.00000000E+00  0.00000000E+00
