Na Al S                                 
   1.0000000000000000     
    12.1828203277415312    0.0000000000000000    0.0000000000000007
    -0.0000000000000005    7.5674693205415418    1.1970639402156102
     0.0000000000000000    0.0113082934473333   13.7304524371335805
   Na   Al   S 
    23     8    24
Direct
  0.9721497562690686  0.0782790829543103  0.7805672128887480
  0.7812122395135503  0.1528175817321369  0.9575065770553195
  0.7992094130495317  0.5342203307818139  0.7482697147343345
  0.7281622070236864  0.9152432182190964  0.5544533128777402
  0.8937895421762576  0.0637675880956223  0.4297099817701096
  0.2482671137566683  0.5652151675003694  0.5112297471818934
  0.7895978117539428  0.5193358209383732  0.2898979363876322
  0.2736402010676358  0.0626554095621472  0.5148555621251489
  0.7128534967737252  0.5568325642664078  0.9696263798804168
  0.4175017385727315  0.3876831972857175  0.6437980777135550
  0.2784293815404908  0.5179354078628151  0.9233571055271881
  0.2665014605461309  0.0124757564796028  0.9228096082669097
  0.7457615385524505  0.4111364726038360  0.5560142082040400
  0.2058125893692875  0.4445308065994098  0.3142514099402121
  0.2829235707716364  0.9588595427512274  0.2775542023850122
  0.5817534002951845  0.5980699625102019  0.3955801176905709
  0.3519932024993437  0.0067762582302606  0.7460606043455869
  0.0699011453870497  0.8907773431408614  0.6604774463568646
  0.1791623460505960  0.4979623542714009  0.7390560370040617
  0.5091452282748534  0.4011659636664291  0.2225463920482156
  0.6904667998558978  0.0257045135950875  0.7562543294367714
  0.5248677372405766  0.5899354721942771  0.7934415863392630
  0.6806640670228745  0.9940089151027678  0.2801305460118897
  0.9579021724933483  0.3526446280617748  0.9293524968956532
  0.0175982013147049  0.2754945358111627  0.6501229374742934
  0.5410737763757609  0.1201313579737118  0.5352131685394710
  0.4843386016647244  0.8040297163070207  0.6086204704376925
  0.5622591448874914  0.1778918874719295  0.8281446333974642
  0.6650474245803721  0.9186337728781453  0.9841051563298109
  0.9461991272715693  0.6880901598472846  0.5842506836889498
  0.9436710744103110  0.8488944780596483  0.7278525731704875
  0.3994284228797085  0.3221356514148894  0.7320367006960353
  0.3426780369032798  0.0643794448443771  0.1021521019952942
  0.4371849204760636  0.3462015527695357  0.5508436843988065
  0.1699900612810055  0.9200077611772741  0.7056063423175800
  0.8422134135674142  0.0999278731610787  0.0390757397431898
  0.6561501002009535  0.7216953896848395  0.1481176190058662
  0.7498473580981084  0.7397414550208978  0.4550848185299685
  0.0891194938366695  0.8687669339168309  0.5776746759974714
  0.3135065895081581  0.7435827643595800  0.6467778412539786
  0.5809010890583366  0.9400033007473567  0.7796526384040092
  0.6426545418365137  0.2843927801319595  0.8014495348970385
  0.4790311423818494  0.8896958767627794  0.2110075009078400
  0.1987292079568874  0.2240053149263801  0.6586736953689041
  0.0164793305740858  0.3388173291748586  0.5459596349262910
  0.5880490776863496  0.6055983945987933  0.6275634467070432
  0.5794668099889293  0.1496439388583468  0.0408535769111538
  0.6444192521484169  0.2303003435336706  0.4752489463541565
  0.8894883124955939  0.0548803851078929  0.6432357370274673
  0.9726759037031130  0.5749571868766594  0.6759204709019855
  0.9744320616520454  0.4019187185467104  0.5123447002143422
  0.7144268397066611  0.8818284029820234  0.7742657292333988
  0.5451719047220038  0.0681366753133759  0.6424540984197407
  0.5012479694962764  0.7268795217092219  0.1041825183075886
  0.4988132726330150  0.8819914675288203  0.5120307019624519

             NaN             NaN             NaN
             NaN             NaN             NaN
             NaN             NaN             NaN
             NaN             NaN             NaN
             NaN             NaN             NaN
             NaN             NaN             NaN
             NaN             NaN             NaN
             NaN             NaN             NaN
             NaN             NaN             NaN
             NaN             NaN             NaN
             NaN             NaN             NaN
             NaN             NaN             NaN
             NaN             NaN             NaN
             NaN             NaN             NaN
             NaN             NaN             NaN
             NaN             NaN             NaN
             NaN             NaN             NaN
             NaN             NaN             NaN
             NaN             NaN             NaN
             NaN             NaN             NaN
             NaN             NaN             NaN
             NaN             NaN             NaN
             NaN             NaN             NaN
             NaN             NaN             NaN
             NaN             NaN             NaN
             NaN             NaN             NaN
             NaN             NaN             NaN
             NaN             NaN             NaN
             NaN             NaN             NaN
             NaN             NaN             NaN
             NaN             NaN             NaN
             NaN             NaN             NaN
             NaN             NaN             NaN
             NaN             NaN             NaN
             NaN             NaN             NaN
             NaN             NaN             NaN
             NaN             NaN             NaN
             NaN             NaN             NaN
             NaN             NaN             NaN
             NaN             NaN             NaN
             NaN             NaN             NaN
             NaN             NaN             NaN
             NaN             NaN             NaN
             NaN             NaN             NaN
             NaN             NaN             NaN
             NaN             NaN             NaN
             NaN             NaN             NaN
             NaN             NaN             NaN
             NaN             NaN             NaN
             NaN             NaN             NaN
             NaN             NaN             NaN
             NaN             NaN             NaN
             NaN             NaN             NaN
             NaN             NaN             NaN
             NaN             NaN             NaN
