Na3AlS3 bottleneck NEB image 08
  1.0
     12.1828203277415312      0.0000000000000000      0.0000000000000007
     -0.0000000000000005      7.5674693205415418      1.1970639402156102
      0.0000000000000000      0.0113082934473333     13.7304524371335805
  Na  Al  S
  23  8  24
Direct
  0.8600073984929045  0.0799018520252899  0.9297614141235870
  0.8107941105627966  0.4003050635031687  0.7953768036777840
  0.7605544340720645  0.8664505216094343  0.5663010820287431
  0.8709588585199761  0.0967761656574186  0.3767918114504024
  0.1865079752056429  0.4450022347953172  0.4535012305537124
  0.9109768409841792  0.5222146026413450  0.2885836942392359
  0.1618476283314845  0.1196702606066458  0.4353567046967494
  0.6500633887249092  0.4222225561491871  0.0971349331757838
  0.4392022487080552  0.3923858557966559  0.6643638791306242
  0.2589650389069866  0.5039633936747888  0.9850982549893857
  0.2447335569898001  0.0121311303841685  0.9858966097213684
  0.7583400205516000  0.4646183130934186  0.5061302842968943
  0.1853975626650649  0.4974062396446109  0.2455576493673454
  0.0275378123933326  0.9203526018822399  0.1851472268321485
  0.5628986255005414  0.5938503664962773  0.3379153002337028
  0.3226242653390237  0.9850734440462013  0.7503475102501086
  0.0266021006980540  0.9297818631406294  0.7007610520719441
  0.3205450500694897  0.9861990486177266  0.2432449201180891
  0.1769081970418437  0.4940146498253343  0.7490975263712315
  0.4683195913430684  0.4099562159025247  0.1775390730134751
  0.6866751802641389  0.0176275949365850  0.7511968481506022
  0.5544067329685300  0.5841853025705459  0.8368611568741910
  0.6794743119067499  0.0024333970858536  0.2312555743259994
  0.0098914933936791  0.3352027383820242  0.0733547199529068
  0.0123295952986799  0.3321848458642459  0.5705582222947136
  0.5138720028472171  0.1692271157441050  0.4249558609364456
  0.4947066984779668  0.8198226046113488  0.5671797322077874
  0.5102541352730861  0.1674568880249497  0.9231761215222378
  0.4967220978117408  0.8268231412584203  0.0692726263771389
  0.9959776185095357  0.6777526849650601  0.4256370368149079
  0.9989847848204543  0.6674160717515507  0.9232525155071308
  0.3591377952042085  0.2983413143677046  0.8542296738060191
  0.1696473222376667  0.2168971646962899  0.1265648684539468
  0.3689407325602758  0.3291238035793799  0.3654698554643818
  0.1537858314513345  0.7898074279895808  0.8595725777772598
  0.9997620766369720  0.6263907556006085  0.0931335924234993
  0.6381484478265834  0.6780639607887475  0.1436503661606476
  0.8345159674071558  0.7808598974396191  0.3661889317125441
  0.1432039145866167  0.8225888908342034  0.3594914167104403
  0.3358406903402701  0.7149943667778842  0.6287798789765612
  0.5074489470460155  0.8772703225511657  0.9000642736602147
  0.6649448674738841  0.2994051721807909  0.8672256324267271
  0.8624966790088119  0.1932737070737938  0.1415600417004934
  0.1715118667133831  0.2190974863528812  0.6292324833634989
  0.0162915472432477  0.3908466460314629  0.4005365617814434
  0.6400720781008605  0.6611855470018295  0.6256967311244791
  0.5006728396234911  0.1162815856272118  0.0923490533987280
  0.6748550157732236  0.2723334491734207  0.3637479424989531
  0.8614782374777952  0.1848264716235568  0.6267063550627739
  0.9979872017756708  0.6219133652831068  0.5950788923165466
  0.0011358235200271  0.3742969299398561  0.9043103900800488
  0.8454248746247800  0.7927251464626174  0.8591485736320198
  0.5183053319482349  0.1046913912974514  0.5945762648627204
  0.3356450689832216  0.7113391697496897  0.1210816770541802
  0.4903232077746600  0.8859575976112657  0.3974994920281865
