Na Al S 
 1.0000000000000000
    12.1828203277415312   -0.0000000000000000    0.0000000000000007
    -0.0000000000000005    7.5674693205415418    1.1970639402156102
     0.0000000000000000    0.0113082934473333   13.7304524371335805
 Na  Al  S  
  23   8  24
Direct
  0.9721497562690710  0.0782790829543128  0.7805672128887480
  0.7812122395135476  0.1528175817321358 -0.0424934229446813
  0.7992094130495285  0.5342203307818135  0.7482697147343339
  0.7281622070236871  0.9152432182190996  0.5544533128777376
  0.8937895421762546  0.0637675880956211  0.4297099817701119
  0.2482671137566657  0.5652151675003697  0.5112297471818904
  0.7895978117539442  0.5193358209383734  0.2898979363876327
  0.2736402010676376  0.0626554095621506  0.5148555621251464
  0.7128534967737257  0.5568325642664110 -0.0303736201195817
  0.4175017385727346  0.3876831972857169  0.6437980777135527
  0.2784293815404901  0.5179354078628151  0.9233571055271848
  0.2665014605461307  0.0124757564796041  0.9228096082669079
  0.7457615385524529  0.4111364726038351  0.5560142082040409
  0.2058125893692904  0.4445308065994067  0.3142514099402102
  0.2829235707716392  0.9588595427512270  0.2775542023850108
  0.5817534002951864  0.5980699625102046  0.3955801176905681
  0.3519932024993466  1.0067762582302624  0.7460606043455847
  0.0699011453870531  0.8907773431408631  0.6604774463568626
  0.1791623460505928  0.4979623542713975  0.7390560370040591
  0.5091452282748561  0.4011659636664277  0.2225463920482167
  0.6904667998558962  0.0257045135950875  0.7562543294367715
  0.5248677372405759  0.5899354721942737  0.7934415863392620
  0.6806640670228780 -0.0059910848972328  0.2801305460118930
 -0.0420978275066494  0.3526446280617729 -0.0706475031043459
  0.0175982013147082  0.2754945358111660  0.6501229374742952
  0.5410737763757602  0.1201313579737095  0.5352131685394743
  0.4843386016647262  0.8040297163070235  0.6086204704376901
  0.5622591448874901  0.1778918874719268  0.8281446333974652
  0.6650474245803732  0.9186337728781458 -0.0158948436701903
  0.9461991272715672  0.6880901598472862  0.5842506836889486
  0.9436710744103122  0.8488944780596503  0.7278525731704887
  0.3994284228797076  0.3221356514148882  0.7320367006960349
  0.3426780369032784  0.0643794448443748  0.1021521019952924
  0.4371849204760642  0.3462015527695375  0.5508436843988054
  0.1699900612810023  0.9200077611772706  0.7056063423175782
 -0.1577865864325828  0.0999278731610801  0.0390757397431917
  0.6561501002009533  0.7216953896848367  0.1481176190058629
  0.7498473580981055  0.7397414550209001  0.4550848185299714
  0.0891194938366709  0.8687669339168297  0.5776746759974726
  0.3135065895081559  0.7435827643595809  0.6467778412539757
  0.5809010890583365  0.9400033007473576  0.7796526384040123
  0.6426545418365132  0.2843927801319579  0.8014495348970393
  0.4790311423818518 -0.1103041232372176  0.2110075009078398
  0.1987292079568848  0.2240053149263770  0.6586736953689067
  0.0164793305740852  0.3388173291748567  0.5459596349262887
  0.5880490776863525  0.6055983945987902  0.6275634467070439
  0.5794668099889294  0.1496439388583491  0.0408535769111559
  0.6444192521484174  0.2303003435336727  0.4752489463541537
  0.8894883124955955  0.0548803851078939  0.6432357370274649
  0.9726759037031096  0.5749571868766609  0.6759204709019884
  0.9744320616520484  0.4019187185467081  0.5123447002143411
  0.7144268397066575  0.8818284029820262  0.7742657292334011
  0.5451719047220053  0.0681366753133786  0.6424540984197403
  0.5012479694962748  0.7268795217092233  0.1041825183075916
  0.4988132726330129  0.8819914675288213  0.5120307019624528
Cartesian
  0.0000000000000000  0.0000000000000000  0.0000000000000000
  0.0000000000000000  0.0000000000000000  0.0000000000000000
  0.0000000000000000  0.0000000000000000  0.0000000000000000
  0.0000000000000000  0.0000000000000000  0.0000000000000000
  0.0000000000000000  0.0000000000000000  0.0000000000000000
  0.0000000000000000  0.0000000000000000  0.0000000000000000
  0.0000000000000000  0.0000000000000000  0.0000000000000000
  0.0000000000000000  0.0000000000000000  0.0000000000000000
  0.0000000000000000  0.0000000000000000  0.0000000000000000
  0.0000000000000000  0.0000000000000000  0.0000000000000000
  0.0000000000000000  0.0000000000000000  0.0000000000000000
  0.0000000000000000  0.0000000000000000  0.0000000000000000
  0.0000000000000000  0.0000000000000000  0.0000000000000000
  0.0000000000000000  0.0000000000000000  0.0000000000000000
  0.0000000000000000  0.0000000000000000  0.0000000000000000
  0.0000000000000000  0.0000000000000000  0.0000000000000000
  0.0000000000000000  0.0000000000000000  0.0000000000000000
  0.0000000000000000  0.0000000000000000  0.0000000000000000
  0.0000000000000000  0.0000000000000000  0.0000000000000000
  0.0000000000000000  0.0000000000000000  0.0000000000000000
  0.0000000000000000  0.0000000000000000  0.0000000000000000
  0.0000000000000000  0.0000000000000000  0.0000000000000000
  0.0000000000000000  0.0000000000000000  0.0000000000000000
  0.0000000000000000  0.0000000000000000  0.0000000000000000
  0.0000000000000000  0.0000000000000000  0.0000000000000000
  0.0000000000000000  0.0000000000000000  0.0000000000000000
  0.0000000000000000  0.0000000000000000  0.0000000000000000
  0.0000000000000000  0.0000000000000000  0.0000000000000000
  0.0000000000000000  0.0000000000000000  0.0000000000000000
  0.0000000000000000  0.0000000000000000  0.0000000000000000
  0.0000000000000000  0.0000000000000000  0.0000000000000000
  0.0000000000000000  0.0000000000000000  0.0000000000000000
  0.0000000000000000  0.0000000000000000  0.0000000000000000
  0.0000000000000000  0.0000000000000000  0.0000000000000000
  0.0000000000000000  0.0000000000000000  0.0000000000000000
  0.0000000000000000  0.0000000000000000  0.0000000000000000
  0.0000000000000000  0.0000000000000000  0.0000000000000000
  0.0000000000000000  0.0000000000000000  0.0000000000000000
  0.0000000000000000  0.0000000000000000  0.0000000000000000
  0.0000000000000000  0.0000000000000000  0.0000000000000000
  0.0000000000000000  0.0000000000000000  0.0000000000000000
  0.0000000000000000  0.0000000000000000  0.0000000000000000
  0.0000000000000000  0.0000000000000000  0.0000000000000000
  0.0000000000000000  0.0000000000000000  0.0000000000000000
  0.0000000000000000  0.0000000000000000  0.0000000000000000
  0.0000000000000000  0.0000000000000000  0.0000000000000000
  0.0000000000000000  0.0000000000000000  0.0000000000000000
  0.0000000000000000  0.0000000000000000  0.0000000000000000
  0.0000000000000000  0.0000000000000000  0.0000000000000000
  0.0000000000000000  0.0000000000000000  0.0000000000000000
  0.0000000000000000  0.0000000000000000  0.0000000000000000
  0.0000000000000000  0.0000000000000000  0.0000000000000000
  0.0000000000000000  0.0000000000000000  0.0000000000000000
  0.0000000000000000  0.0000000000000000  0.0000000000000000
  0.0000000000000000  0.0000000000000000  0.0000000000000000
