Na Al S 
 1.0000000000000000
    12.1828203277415312    0.0000000000000000    0.0000000000000007
    -0.0000000000000005    7.5674693205415418    1.1970639402156102
     0.0000000000000000    0.0113082934473333   13.7304524371335805
 Na  Al  S  
  23   8  24
Direct
  0.8756778132078745  0.0740919058641127  0.9227967055583990
  0.7485512985508774  0.3943955925245071 -0.0107590038069307
  0.8278850263721828  0.5012052877215305  0.7451253958632366
  0.7584557090517311  0.9632180981330947  0.5134985931778399
  0.9156033730193925  0.1157056238288302  0.3435371339341412
  0.2442972037035709  0.4611001740143643  0.4391977077754058
  0.8263580915986948  0.5135624304675364  0.2363886877116572
  0.2498523113611517  0.0130965292317522  0.4844397802081858
  0.4610706779733338  0.3692319629437838  0.6742246865231011
  0.2637956501136323  0.3577129351374216  1.0242111354899863
  0.2428270633950600 -0.0232853773347049  0.9850954246921753
  0.7615516939771959  0.4610535607671771  0.5063960182546094
  0.1679772570279880  0.4691169501726632  0.2326278884173479
  0.0207875242794869  0.9230477364262475  0.1769039175720605
  0.5774037129171532  0.5882615374927223  0.3387833329029841
  0.3400311677041516  0.8067795094757382  0.7868091262328848
  0.0019848239703757  0.9685157698614080  0.6872793469840027
  0.3261678544371703  0.8391436712510627  0.2435942237941301
  0.1634931351572620  0.4210821155329260  0.7883837098300639
  0.4743482195014944  0.4027552561505638  0.1732160319460515
  0.6877353293632624  0.0096538281766261  0.7496164426601855
  0.5793735831631549  0.5811696237769507  0.8501854787670453
  0.6796553958426798  0.0000360527653509  0.2323685978469249
  0.0067059515952053  0.3314398659459419  0.0698373054698682
  0.0027527697701797  0.2994709938332076  0.5689965008407132
  0.5194441586479649  0.1599763608669996  0.4254479051574704
  0.5375151656972014  0.8553269862817433  0.5564733830062928
  0.5169221928574942  0.1518640544126234  0.9260645533324646
  0.5065597256069662  0.8286076049176238  0.0589210550853046
  0.9965992430577792  0.6763925377471649  0.4252334838108798
  0.2309495655035949  0.7827666443051648  1.0547873964652210
  0.3636185814262199  0.2640415160999246  0.8578458775291293
  0.1679436979147381  0.2079647871647382  0.1211979040989008
  0.3785811266452275  0.2938120423307424  0.3531908209643983
  0.1045670807246483  0.8439053683800735  0.8450632821472679
 -0.0042944651729238  0.6249667583059834  0.0892086863197775
  0.6428553610601292  0.6775507306528536  0.1408083082054640
  0.8367501235786535  0.7798888759805999  0.3647158937941109
  0.1159982023355430  0.8470435013552340  0.3428876462840464
  0.3831579521777408  0.8086716117013085  0.5985475194736654
  0.5550429547842830  0.9203983978573682  0.8968350697770435
  0.6726779859442328  0.2785008345392576  0.8688234500747566
  0.8677131404426209  0.1827474753254910  0.1468899494069605
  0.1656426847030493  0.1752685801119829  0.6332557346160815
  0.0024937376007130  0.3755409582418327  0.3954267854686313
  0.6532886723952708  0.6593272366184735  0.6259451617444652
  0.4996748314798589  0.1109702407038277  0.0917993327648494
  0.6775864604441978  0.2687981414834294  0.3638959917949458
  0.8626835530468090  0.1814667822299929  0.6260466037015376
  0.1275770235766607  0.6700950515444266  0.5856519807777806
 -0.0099626185231121  0.3683552076910638  0.9128550382392475
  0.8504402925455550  0.7940297559583664  0.8601781810523045
  0.5207182400286624  0.0935668789903642  0.5931233280247497
  0.3389264471881947  0.6920303402775128  0.0696603406392486
  0.5114900129554469  0.9038393101974114  0.3929680693796260
Cartesian
  0.0000000000000000  0.0000000000000000  0.0000000000000000
  0.0000000000000000  0.0000000000000000  0.0000000000000000
  0.0000000000000000  0.0000000000000000  0.0000000000000000
  0.0000000000000000  0.0000000000000000  0.0000000000000000
  0.0000000000000000  0.0000000000000000  0.0000000000000000
  0.0000000000000000  0.0000000000000000  0.0000000000000000
  0.0000000000000000  0.0000000000000000  0.0000000000000000
  0.0000000000000000  0.0000000000000000  0.0000000000000000
  0.0000000000000000  0.0000000000000000  0.0000000000000000
  0.0000000000000000  0.0000000000000000  0.0000000000000000
  0.0000000000000000  0.0000000000000000  0.0000000000000000
  0.0000000000000000  0.0000000000000000  0.0000000000000000
  0.0000000000000000  0.0000000000000000  0.0000000000000000
  0.0000000000000000  0.0000000000000000  0.0000000000000000
  0.0000000000000000  0.0000000000000000  0.0000000000000000
  0.0000000000000000  0.0000000000000000  0.0000000000000000
  0.0000000000000000  0.0000000000000000  0.0000000000000000
  0.0000000000000000  0.0000000000000000  0.0000000000000000
  0.0000000000000000  0.0000000000000000  0.0000000000000000
  0.0000000000000000  0.0000000000000000  0.0000000000000000
  0.0000000000000000  0.0000000000000000  0.0000000000000000
  0.0000000000000000  0.0000000000000000  0.0000000000000000
  0.0000000000000000  0.0000000000000000  0.0000000000000000
  0.0000000000000000  0.0000000000000000  0.0000000000000000
  0.0000000000000000  0.0000000000000000  0.0000000000000000
  0.0000000000000000  0.0000000000000000  0.0000000000000000
  0.0000000000000000  0.0000000000000000  0.0000000000000000
  0.0000000000000000  0.0000000000000000  0.0000000000000000
  0.0000000000000000  0.0000000000000000  0.0000000000000000
  0.0000000000000000  0.0000000000000000  0.0000000000000000
  0.0000000000000000  0.0000000000000000  0.0000000000000000
  0.0000000000000000  0.0000000000000000  0.0000000000000000
  0.0000000000000000  0.0000000000000000  0.0000000000000000
  0.0000000000000000  0.0000000000000000  0.0000000000000000
  0.0000000000000000  0.0000000000000000  0.0000000000000000
  0.0000000000000000  0.0000000000000000  0.0000000000000000
  0.0000000000000000  0.0000000000000000  0.0000000000000000
  0.0000000000000000  0.0000000000000000  0.0000000000000000
  0.0000000000000000  0.0000000000000000  0.0000000000000000
  0.0000000000000000  0.0000000000000000  0.0000000000000000
  0.0000000000000000  0.0000000000000000  0.0000000000000000
  0.0000000000000000  0.0000000000000000  0.0000000000000000
  0.0000000000000000  0.0000000000000000  0.0000000000000000
  0.0000000000000000  0.0000000000000000  0.0000000000000000
  0.0000000000000000  0.0000000000000000  0.0000000000000000
  0.0000000000000000  0.0000000000000000  0.0000000000000000
  0.0000000000000000  0.0000000000000000  0.0000000000000000
  0.0000000000000000  0.0000000000000000  0.0000000000000000
  0.0000000000000000  0.0000000000000000  0.0000000000000000
  0.0000000000000000  0.0000000000000000  0.0000000000000000
  0.0000000000000000  0.0000000000000000  0.0000000000000000
  0.0000000000000000  0.0000000000000000  0.0000000000000000
  0.0000000000000000  0.0000000000000000  0.0000000000000000
  0.0000000000000000  0.0000000000000000  0.0000000000000000
  0.0000000000000000  0.0000000000000000  0.0000000000000000
