mp-560538_Na3AlS3 NEB_v2 image 02       
   1.0000000000000000     
    12.1828203277415312    0.0000000000000000    0.0000000000000007
    -0.0000000000000005    7.5674693205415418    1.1970639402156102
     0.0000000000000000    0.0113082934473333   13.7304524371335805
   Na   Al   S 
    23     8    24
Direct
  0.0027752853155647  0.0283721675519999  0.7680411986659976
  0.7602836579542682  0.9891166884593687  0.0046110219350339
  0.8229561811217607  0.4994486963375806  0.7521654433290124
  0.7538898150920232  0.9845907683796469  0.5162963359975379
  0.9539248849444277  0.0987762292274610  0.3340195409664801
  0.2392931563833898  0.5523959180004923  0.4808974525856087
  0.8222964425550501  0.5070733307928919  0.2516745931615532
  0.2379758600856476  0.0282623768839017  0.4966209755449285
  0.7502689734515542  0.4858972083736575  0.0086999122257652
  0.3856844415559522  0.3665937234128620  0.6572332720370895
  0.2565339465704355  0.5044570795358112  0.9931651514536313
  0.2525303698385173  0.0116717440539844  0.9935372184361810
  0.7456921413916433  0.4830189315245974  0.5137597730305217
  0.1806981526262419  0.4868613493096703  0.2473021687003012
  0.0323117421565655  0.9080659396412045  0.1730458091112297
  0.5446808138392143  0.6011637748519760  0.3322484916949406
  0.3132374166949390  0.9733898703951382  0.7576270902427922
  0.3186345372559387  0.9891621049828956  0.2510199740971046
  0.1654021840252540  0.5224341969435358  0.7524508701232335
  0.4739551906555661  0.4025940668689216  0.1810466045980377
  0.6871298462063962  0.0087533398139641  0.7527894048299828
  0.5219017756714948  0.5789930875693088  0.8060148728983521
  0.6780860790592129  0.0052945390953241  0.2490868834070739
  0.0056789547266476  0.3208341864950199  0.0737935509524235
  0.0088005313258677  0.3433278989649722  0.5751032168203096
  0.5073354744947238  0.1778672375304780  0.4301333988907530
  0.4967912042135367  0.8311130057925311  0.5738337618159051
  0.5058097028130391  0.1659048284195066  0.9251682039348523
  0.4958089018732679  0.8222982691746239  0.0735127523052981
  0.9912348394554655  0.6827690534278901  0.4293645539770736
  0.9959552746702798  0.6624287692213926  0.9302939060783544
  0.3550621436945178  0.3030394715289120  0.8599440112612200
  0.1664412234505050  0.2097029961493178  0.1293155347689918
  0.3604912707528811  0.3310543943310620  0.3688444080666997
  0.1511353692948276  0.7944222667003018  0.8740956161111484
  0.9930611694366007  0.6079251718981027  0.1004559001893881
  0.6444028931208265  0.6848781985782253  0.1418072344145358
  0.8294835190725394  0.7857639552297329  0.3731485989047840
  0.1340465976244261  0.8386331878610633  0.3591891898548809
  0.3375918730875895  0.7173836761217416  0.6313341950025162
  0.4991309469455629  0.8740280753272316  0.9041594297995985
  0.6640976271912749  0.2866745811277127  0.8726496846989988
  0.8593659418543425  0.1776953822909633  0.1441139131311857
  0.1673052709180212  0.2298784597560655  0.6379424873629773
  0.0124964576816922  0.3952709744241432  0.4045704520344344
  0.6476831476331952  0.6970784642816241  0.6380847804986658
  0.5004943958417982  0.1122608521433079  0.0956276772348019
  0.6655611746767605  0.2883024503012095  0.3679558609828035
  0.8558825382682258  0.2085891523060823  0.6351133165274376
  0.9997227029392519  0.6334676921032596  0.5974426876302772
  0.9993431135471198  0.3726640291731869  0.9053203485368186
  0.8411465647204679  0.7854338505015122  0.8689591673586392
  0.5129746124669552  0.1189940994306369  0.5988909683480941
  0.3386329916357624  0.7038810553293615  0.1334684422716350
  0.4907601253316756  0.8919189865415760  0.4038587529001845

             NaN             NaN             NaN
             NaN             NaN             NaN
             NaN             NaN             NaN
             NaN             NaN             NaN
             NaN             NaN             NaN
             NaN             NaN             NaN
             NaN             NaN             NaN
             NaN             NaN             NaN
             NaN             NaN             NaN
             NaN             NaN             NaN
             NaN             NaN             NaN
             NaN             NaN             NaN
             NaN             NaN             NaN
             NaN             NaN             NaN
             NaN             NaN             NaN
             NaN             NaN             NaN
             NaN             NaN             NaN
             NaN             NaN             NaN
             NaN             NaN             NaN
             NaN             NaN             NaN
             NaN             NaN             NaN
             NaN             NaN             NaN
             NaN             NaN             NaN
             NaN             NaN             NaN
             NaN             NaN             NaN
             NaN             NaN             NaN
             NaN             NaN             NaN
             NaN             NaN             NaN
             NaN             NaN             NaN
             NaN             NaN             NaN
             NaN             NaN             NaN
             NaN             NaN             NaN
             NaN             NaN             NaN
             NaN             NaN             NaN
             NaN             NaN             NaN
             NaN             NaN             NaN
             NaN             NaN             NaN
             NaN             NaN             NaN
             NaN             NaN             NaN
             NaN             NaN             NaN
             NaN             NaN             NaN
             NaN             NaN             NaN
             NaN             NaN             NaN
             NaN             NaN             NaN
             NaN             NaN             NaN
             NaN             NaN             NaN
             NaN             NaN             NaN
             NaN             NaN             NaN
             NaN             NaN             NaN
             NaN             NaN             NaN
             NaN             NaN             NaN
             NaN             NaN             NaN
             NaN             NaN             NaN
             NaN             NaN             NaN
             NaN             NaN             NaN
