mp-560538_Na3AlS3 NEB_v2 image 02
  1.0
     12.1828203277415312      0.0000000000000000      0.0000000000000007
     -0.0000000000000005      7.5674693205415418      1.1970639402156102
      0.0000000000000000      0.0113082934473333     13.7304524371335805
  Na  Al  S
  23  8  24
Direct
  0.0027752853155642  0.0283721675519975  0.7680411986659968
  0.7602836579542689  0.9891166884593722  0.0046110219350333
  0.8229561811217585  0.4994486963375787  0.7521654433290094
  0.7538898150920206  0.9845907683796447  0.5162963359975360
  0.9539248849444304  0.0987762292274612  0.3340195409664835
  0.2392931563833886  0.5523959180004920  0.4808974525856081
  0.8222964425550524  0.5070733307928910  0.2516745931615527
  0.2379758600856448  0.0282623768839021  0.4966209755449253
  0.7502689734515554  0.4858972083736608  0.0086999122257649
  0.3856844415559545  0.3665937234128610  0.6572332720370861
  0.2565339465704355  0.5044570795358144  0.9931651514536284
  0.2525303698385156  0.0116717440539834  0.9935372184361793
  0.7456921413916463  0.4830189315245977  0.5137597730305189
  0.1806981526262443  0.4868613493096734  0.2473021687002981
  0.0323117421565652  0.9080659396412016  0.1730458091112279
  0.5446808138392127  0.6011637748519769  0.3322484916949379
  0.3132374166949404  0.9733898703951395  0.7576270902427930
  0.3186345372559398  0.9891621049828933  0.2510199740971041
  0.1654021840252572  0.5224341969435338  0.7524508701232312
  0.4739551906555670  0.4025940668689243  0.1810466045980401
  0.6871298462063965  0.0087533398139657  0.7527894048299794
  0.5219017756714968  0.5789930875693083  0.8060148728983487
  0.6780860790592146  0.0052945390953235  0.2490868834070752
  0.0056789547266449  0.3208341864950219  0.0737935509524256
  0.0088005313258695  0.3433278989649686  0.5751032168203124
  0.5073354744947226  0.1778672375304757  0.4301333988907530
  0.4967912042135351  0.8311130057925313  0.5738337618159065
  0.5058097028130383  0.1659048284195075  0.9251682039348499
  0.4958089018732675  0.8222982691746256  0.0735127523052976
  0.9912348394554669  0.6827690534278871  0.4293645539770702
  0.9959552746702829  0.6624287692213894  0.9302939060783513
  0.3550621436945163  0.3030394715289123  0.8599440112612222
  0.1664412234505084  0.2097029961493143  0.1293155347689920
  0.3604912707528795  0.3310543943310596  0.3688444080666978
  0.1511353692948302  0.7944222667002995  0.8740956161111518
  0.9930611694365972  0.6079251718981048  0.1004559001893864
  0.6444028931208251  0.6848781985782231  0.1418072344145377
  0.8294835190725377  0.7857639552297359  0.3731485989047816
  0.1340465976244244  0.8386331878610607  0.3591891898548819
  0.3375918730875915  0.7173836761217384  0.6313341950025150
  0.4991309469455627  0.8740280753272284  0.9041594297995972
  0.6640976271912759  0.2866745811277125  0.8726496846990004
  0.8593659418543415  0.1776953822909619  0.1441139131311889
  0.1673052709180197  0.2298784597560635  0.6379424873629752
  0.0124964576816920  0.3952709744241409  0.4045704520344372
  0.6476831476331970  0.6970784642816210  0.6380847804986692
  0.5004943958417958  0.1122608521433110  0.0956276772348020
  0.6655611746767605  0.2883024503012107  0.3679558609828053
  0.8558825382682260  0.2085891523060817  0.6351133165274352
  0.9997227029392517  0.6334676921032582  0.5974426876302803
  0.9993431135471221  0.3726640291731839  0.9053203485368171
  0.8411465647204703  0.7854338505015139  0.8689591673586414
  0.5129746124669520  0.1189940994306373  0.5988909683480949
  0.3386329916357629  0.7038810553293591  0.1334684422716331
  0.4907601253316770  0.8919189865415728  0.4038587529001827
