Na1 Si2 S3                              
   1.0000000000000000     
     3.5893449388668239    0.0000000000000000    0.0000000000000000
    -1.7946724694334120    3.1084639000245553    0.0000000000000000
    -0.0000000000000000   -0.0000000000000000    9.6211577344049246
   Na   Si   S 
     1     2     3
Direct
  0.0000000000000000  0.0000000000000000  0.5000002182272567
  0.6666671990558228  0.3333332835844658  0.1551329044138470
  0.3333332835645635  0.6666665671291341  0.8448675320406736
  0.6666671990558228  0.3333332835844658  0.7055232973667387
  0.0000000000000000  0.0000000000000000 -0.0031181278623799
  0.3333332835645635  0.6666665671291341  0.2944771390877818

  0.00000000E+00  0.00000000E+00  0.00000000E+00
  0.00000000E+00  0.00000000E+00  0.00000000E+00
  0.00000000E+00  0.00000000E+00  0.00000000E+00
  0.00000000E+00  0.00000000E+00  0.00000000E+00
  0.00000000E+00  0.00000000E+00  0.00000000E+00
  0.00000000E+00  0.00000000E+00  0.00000000E+00
