Na1 Si2 S3
1.0
   3.6207533528321840   -0.0000000000000000   -0.0000000000000000
  -1.8103766764160920    3.1356643844116938   -0.0000000000000000
   0.0000000000000000   -0.0000000000000000    9.6232100995756440
Na Si S
1 2 3
direct
   0.0000000000000000    0.0000000000000000    0.5000002182272567 Na
   0.6666671990558227    0.3333332835844658    0.1584116521921513 Si
   0.3333332835645635    0.6666665671291342    0.8415887842623690 Si
   0.6666671990558227    0.3333332835844658    0.7007208385353115 S
   0.0000000000000000    0.0000000000000000    0.0000000000000000 S
   0.3333332835645635    0.6666665671291342    0.2992795979192087 S
