JVASP-12818_Na5InS4 NEB_v2 image 09     
   1.0000000000000000     
     6.8330688911791304    0.0000000000000000   -0.1272470229470229
    -0.0000000000000010   17.6718505513838551    0.0000000000000010
    -0.0048172062806638    0.0000000000000000    7.8804846921668430
   Na   In   S 
    19     4    16
Direct
  0.3898499325924618  0.3534848227364762  0.8195220385482713
  0.3340046892158668  0.0130522121682688  0.3355347847769821
  0.3597072384787836  0.2415179831277854  0.3452264697585079
  0.6532878520045742  0.4882448313123717  0.6702216349917549
  0.9382608776246499  0.1415687834590216  0.5338187117721631
  0.0092671234229940  0.3669811310805784  0.4933229072640586
  0.6630608219075000  0.1248875032327632  0.1559959318698603
  0.9966769357309104  0.0032739782753524  0.9945701764574792
  0.9841792173253694  0.2473230672756230  0.9773167059011314
  0.6541127862882092  0.7613150620301568  0.6640850316366453
  0.3422819055734436  0.5090051355309342  0.3396805686465285
  0.3458803114211690  0.7389479618691368  0.3349782981694815
  0.6542169599890286  0.9894285538397369  0.6646129766612319
  0.9701496867747537  0.6234729906398684  0.5304868699256033
  0.0294980351322707  0.8760386858910323  0.4721192021095888
  0.6723931040166278  0.6224368314686544  0.1572904514615985
  0.3320931079586487  0.8758365301756328  0.8435815815288947
  0.0278003877943220  0.4922590438939096  0.9993961218615368
  0.9992258894106598  0.7498090429609832  0.0008556039894074
  0.6574662193282421  0.3771668687906669  0.1746218938794826
  0.3531404937401561  0.1277292910586283  0.8152304661432765
  0.6459319193435604  0.8758649882249117  0.1802619219084178
  0.3527878758248661  0.6251843218504902  0.8212332909563926
  0.7738558453230269  0.3764438734185518  0.8789828506160688
  0.2403299709050728  0.1276752373161614  0.1167595849314580
  0.2299610399621059  0.0074981095384388  0.6711638444764318
  0.7722772061026717  0.2573949380123111  0.3164520215745767
  0.7735122596499053  0.4931168723958379  0.3373566866852897
  0.2155331953119344  0.2413777851872041  0.6662946073137448
  0.7193906640917120  0.1237672779426475  0.8208461074027653
  0.2862928540429337  0.3753776876104311  0.1790736502789372
  0.7608603497407884  0.8750619104707766  0.8808723626610870
  0.2405885910730845  0.6245267474833227  0.1209421446994909
  0.2360723970961729  0.5061034105925728  0.6742558010848043
  0.7678661655515953  0.7573137076937684  0.3293552303311316
  0.7653563112911428  0.9934900328007714  0.3306429484102793
  0.2306655849863688  0.7431801612467694  0.6702456056483115
  0.7228690962238531  0.6259342706622775  0.8177942909929570
  0.2754307683451387  0.8753348991175685  0.1826201842210864

             NaN             NaN             NaN
             NaN             NaN             NaN
             NaN             NaN             NaN
             NaN             NaN             NaN
             NaN             NaN             NaN
             NaN             NaN             NaN
             NaN             NaN             NaN
             NaN             NaN             NaN
             NaN             NaN             NaN
             NaN             NaN             NaN
             NaN             NaN             NaN
             NaN             NaN             NaN
             NaN             NaN             NaN
             NaN             NaN             NaN
             NaN             NaN             NaN
             NaN             NaN             NaN
             NaN             NaN             NaN
             NaN             NaN             NaN
             NaN             NaN             NaN
             NaN             NaN             NaN
             NaN             NaN             NaN
             NaN             NaN             NaN
             NaN             NaN             NaN
             NaN             NaN             NaN
             NaN             NaN             NaN
             NaN             NaN             NaN
             NaN             NaN             NaN
             NaN             NaN             NaN
             NaN             NaN             NaN
             NaN             NaN             NaN
             NaN             NaN             NaN
             NaN             NaN             NaN
             NaN             NaN             NaN
             NaN             NaN             NaN
             NaN             NaN             NaN
             NaN             NaN             NaN
             NaN             NaN             NaN
             NaN             NaN             NaN
             NaN             NaN             NaN
