JVASP-12818_Na5InS4 NEB_v2 image 09
  1.0
      6.8330688911791304      0.0000000000000000     -0.1272470229470229
     -0.0000000000000010     17.6718505513838551      0.0000000000000010
     -0.0048172062806638      0.0000000000000000      7.8804846921668430
  Na  In  S
  19  4  16
Direct
  0.3898499325924630  0.3534848227364775  0.8195220385482678
  0.3340046892158666  0.0130522121682677  0.3355347847769801
  0.3597072384787828  0.2415179831277853  0.3452264697585103
  0.6532878520045758  0.4882448313123703  0.6702216349917578
  0.9382608776246483  0.1415687834590213  0.5338187117721621
  0.0092671234229907  0.3669811310805807  0.4933229072640567
  0.6630608219075005  0.1248875032327603  0.1559959318698573
  0.9966769357309107  0.0032739782753553  0.9945701764574782
  0.9841792173253709  0.2473230672756243  0.9773167059011327
  0.6541127862882099  0.7613150620301599  0.6640850316366447
  0.3422819055734416  0.5090051355309323  0.3396805686465298
  0.3458803114211658  0.7389479618691384  0.3349782981694791
  0.6542169599890308  0.9894285538397344  0.6646129766612342
  0.9701496867747558  0.6234729906398648  0.5304868699256056
  0.0294980351322690  0.8760386858910314  0.4721192021095857
  0.6723931040166261  0.6224368314686513  0.1572904514615978
  0.3320931079586518  0.8758365301756351  0.8435815815288928
  0.0278003877943224  0.4922590438939094  0.9993961218615337
  0.9992258894106613  0.7498090429609814  0.0008556039894055
  0.6574662193282435  0.3771668687906642  0.1746218938794836
  0.3531404937401534  0.1277292910586248  0.8152304661432783
  0.6459319193435576  0.8758649882249095  0.1802619219084179
  0.3527878758248661  0.6251843218504888  0.8212332909563931
  0.7738558453230250  0.3764438734185548  0.8789828506160705
  0.2403299709050752  0.1276752373161610  0.1167595849314597
  0.2299610399621024  0.0074981095384409  0.6711638444764352
  0.7722772061026736  0.2573949380123092  0.3164520215745767
  0.7735122596499072  0.4931168723958402  0.3373566866852881
  0.2155331953119325  0.2413777851872064  0.6662946073137449
  0.7193906640917133  0.1237672779426467  0.8208461074027673
  0.2862928540429307  0.3753776876104288  0.1790736502789400
  0.7608603497407878  0.8750619104707749  0.8808723626610904
  0.2405885910730841  0.6245267474833238  0.1209421446994896
  0.2360723970961699  0.5061034105925756  0.6742558010848035
  0.7678661655515984  0.7573137076937695  0.3293552303311306
  0.7653563112911408  0.9934900328007683  0.3306429484102790
  0.2306655849863720  0.7431801612467681  0.6702456056483118
  0.7228690962238544  0.6259342706622767  0.8177942909929565
  0.2754307683451355  0.8753348991175687  0.1826201842210875
