Na Al S                                 
   1.0000000000000000     
    12.1026382039385112    0.0000000000000000    0.0000000000000007
    -0.0000000000000004    7.0938170788834114    0.0000000000000004
     0.0000000000000000    0.0000000000000000   21.6510149562332330
   Na   Al   S 
    39     8    32
Direct
  0.3480991013258858  0.9072946605469099  0.4985690376200793
  0.6489341989636301  0.4082831881447717  0.9980354073419804
  0.1567242750191937  0.1018485665743611  0.9976371701997451
  0.1523439471428034  0.4086480886016730  0.4987884780755039
  0.3353354233916193  0.5873912437979527  0.9926319429252715
  0.6518860527709123  0.0907421439167280  0.5011723604023217
  0.8479225506329726  0.5910538444160167  0.5012000680200188
  0.8570189071503123  0.9045367409695686  0.9994831585822652
  0.2877802078127161  0.5507383902279201  0.3626211492124582
  0.7141718408971798  0.0484842416095717  0.1364106598126895
  0.2789400040940393  0.8981799335277287  0.8652244971155412
  0.2121062524566852  0.0511110150457270  0.3627747399359222
  0.7123963439527188  0.4477735823729958  0.6377126678403542
  0.7875161731332128  0.9487211215250113  0.6381417933962155
  0.7862576785120865  0.5498062442128671  0.1350970361169530
  0.5525230591730121  0.5610320666288118  0.4346053972413415
  0.4504985588305459  0.0575875976094906  0.0660568364950080
  0.9581448296962449  0.4418713858405852  0.9338079280512801
  0.9472854274807290  0.0614814366650407  0.4350726074571725
  0.5532076000999027  0.9376265422606735  0.9350937185395551
  0.4465980665209983  0.4368622187999875  0.5657177008153482
  0.0538599702815219  0.9380066226166619  0.5662733634834964
  0.0522229082886696  0.5611018731448709  0.0675958786696569
  0.5837427563267283  0.3838157796392139  0.2527692015012093
  0.4161049235512166  0.8830487553364961  0.2466066508098521
  0.9159943178734196  0.6200549763804233  0.7525793204183131
  0.9162237855698123  0.8851706133202697  0.2532126411970665
  0.5807128011986009  0.1140240889473176  0.7529215649651846
  0.4071017940124548  0.6217674527843116  0.7502760504603074
  0.0968130988570124  0.1455855366446528  0.7527038036146720
  0.0847172825652720  0.3839578787644058  0.2471040317398305
  0.8347377365728974  0.1056297849056804  0.8313357504096501
  0.1631139067056324  0.6102038047998022  0.6695633869409576
  0.6637682313953306  0.8923504978170769  0.3305078720517898
  0.6626733349121068  0.6026740618566890  0.8301977215992764
  0.8358386040530732  0.3936095584919030  0.3302748709064218
  0.1650689639148410  0.8920086055424292  0.1686424117419421
  0.3376515276219862  0.3905455043695909  0.1682189849151499
  0.3354609621061968  0.1055483897822498  0.6685893466133663
  0.0403001768954496  0.8300395243971082  0.8743458791104075
  0.9597409392193725  0.3323632127537550  0.6260258743973282
  0.4589818035196629  0.1665207162465734  0.3741076402559784
  0.4511184624945628  0.3342916650966004  0.8739286036072471
  0.0408920245113933  0.6668672616024836  0.3743203171698184
  0.9598680844557208  0.1669398224776018  0.1250732099116618
  0.5415681912655046  0.6647450803304196  0.1247235011745005
  0.5402651574253881  0.8310096561225180  0.6256802254042881
  0.3737693718781401  0.2042404907615492  0.9597661575729077
  0.6305218416292035  0.7066732129374813  0.5423509333846894
  0.1304275157498296  0.7920823451282573  0.4577205926613814
  0.1226881400784805  0.7220411240185953  0.9617252183577278
  0.3693543689200567  0.2914750102118191  0.4575041457604243
  0.6349093057458290  0.7894930598323029  0.0426026318051314
  0.8716596872316416  0.2908469889801282  0.0410591285027380
  0.8690106410967644  0.2067517647348964  0.5430308745981236
  0.4473728344133434  0.8485611781874169  0.3767217751739764
  0.5551703549859965  0.3471257740005029  0.1228126894155963
  0.0502620901940745  0.1446478002076006  0.8790156889609690
  0.0521849643589576  0.3488839814504416  0.3769433629823808
  0.4491741277000330  0.6514353187043866  0.8779700358425728
  0.5528210808016922  0.1491401080987487  0.6229146855390013
  0.9466187850151968  0.6502586439493854  0.6228323419376238
  0.9468521956788081  0.8493721501611518  0.1239374872482983
  0.1407498275136376  0.2477451653912652  0.6234927891490045
  0.8597741486860073  0.7377745171056844  0.8745922355150597
  0.3608566770548407  0.7514414662047955  0.1227195054508030
  0.3593419733449466  0.7444369603156389  0.6232999394556202
  0.1405201233121076  0.2543227222040443  0.1241607994576768
  0.8601288221468835  0.7552682117519467  0.3761383077981364
  0.6398386622133430  0.2545214059358401  0.3760081545818323
  0.6340308393051473  0.2423044133660355  0.8736719258501680
  0.6306678518847164  0.7567165626665258  0.2130690317963868
  0.3690064607732850  0.2571736094489410  0.2862316624032246
  0.8721721193675194  0.2432200290904021  0.7143273719551431
  0.8692172394334108  0.2593018573178725  0.2125567297284405
  0.6286627177386563  0.7407339838278233  0.7135393321800123
  0.3655356352929999  0.2411333233937896  0.7855378873274290
  0.1312108202460038  0.7537789080016566  0.7861561701330828
  0.1308864953942219  0.7577844300828218  0.2864538807574704

             NaN             NaN             NaN
             NaN             NaN             NaN
             NaN             NaN             NaN
             NaN             NaN             NaN
             NaN             NaN             NaN
             NaN             NaN             NaN
             NaN             NaN             NaN
             NaN             NaN             NaN
             NaN             NaN             NaN
             NaN             NaN             NaN
             NaN             NaN             NaN
             NaN             NaN             NaN
             NaN             NaN             NaN
             NaN             NaN             NaN
             NaN             NaN             NaN
             NaN             NaN             NaN
             NaN             NaN             NaN
             NaN             NaN             NaN
             NaN             NaN             NaN
             NaN             NaN             NaN
             NaN             NaN             NaN
             NaN             NaN             NaN
             NaN             NaN             NaN
             NaN             NaN             NaN
             NaN             NaN             NaN
             NaN             NaN             NaN
             NaN             NaN             NaN
             NaN             NaN             NaN
             NaN             NaN             NaN
             NaN             NaN             NaN
             NaN             NaN             NaN
             NaN             NaN             NaN
             NaN             NaN             NaN
             NaN             NaN             NaN
             NaN             NaN             NaN
             NaN             NaN             NaN
             NaN             NaN             NaN
             NaN             NaN             NaN
             NaN             NaN             NaN
             NaN             NaN             NaN
             NaN             NaN             NaN
             NaN             NaN             NaN
             NaN             NaN             NaN
             NaN             NaN             NaN
             NaN             NaN             NaN
             NaN             NaN             NaN
             NaN             NaN             NaN
             NaN             NaN             NaN
             NaN             NaN             NaN
             NaN             NaN             NaN
             NaN             NaN             NaN
             NaN             NaN             NaN
             NaN             NaN             NaN
             NaN             NaN             NaN
             NaN             NaN             NaN
             NaN             NaN             NaN
             NaN             NaN             NaN
             NaN             NaN             NaN
             NaN             NaN             NaN
             NaN             NaN             NaN
             NaN             NaN             NaN
             NaN             NaN             NaN
             NaN             NaN             NaN
             NaN             NaN             NaN
             NaN             NaN             NaN
             NaN             NaN             NaN
             NaN             NaN             NaN
             NaN             NaN             NaN
             NaN             NaN             NaN
             NaN             NaN             NaN
             NaN             NaN             NaN
             NaN             NaN             NaN
             NaN             NaN             NaN
             NaN             NaN             NaN
             NaN             NaN             NaN
             NaN             NaN             NaN
             NaN             NaN             NaN
             NaN             NaN             NaN
             NaN             NaN             NaN
