Na5AlS4 bottleneck NEB image 09
  1.0
     12.1026382039385112      0.0000000000000000      0.0000000000000007
     -0.0000000000000004      7.0938170788834114      0.0000000000000004
      0.0000000000000000      0.0000000000000000     21.6510149562332330
  Na  Al  S
  39  8  32
Direct
  0.3480991013258868  0.9072946605469064  0.4985690376200780
  0.6489341989636320  0.4082831881447683  0.9980354073419826
  0.1567242750191941  0.1018485665743576  0.9976371701997455
  0.1523439471428035  0.4086480886016695  0.4987884780755019
  0.3353354233916207  0.5873912437979536  0.9926319429252689
  0.6518860527709111  0.0907421439167261  0.5011723604023199
  0.8479225506329716  0.5910538444160151  0.5012000680200219
  0.8570189071503156  0.9045367409695675  0.9994831585822673
  0.2877802078127195  0.5507383902279236  0.3626211492124602
  0.7141718408971796  0.0484842416095743  0.1364106598126923
  0.2122669855887900  0.0909041206899914  0.3130650469337006
  0.2787792709619338  0.9583868278834595  0.9149341901177677
  0.7123963439527161  0.4477735823729974  0.6377126678403546
  0.7875161731332120  0.9487211215250141  0.6381417933962132
  0.7862576785120871  0.5498062442128693  0.1350970361169553
  0.5525230591730086  0.5610320666288109  0.4346053972413398
  0.4504985588305433  0.0575875976094914  0.0660568364950070
  0.9581448296962417  0.4418713858405874  0.9338079280512819
  0.9472854274807260  0.0614814366650374  0.4350726074571696
  0.5532076000999019  0.9376265422606771  0.9350937185395548
  0.4465980665210000  0.4368622187999874  0.5657177008153496
  0.0538599702815215  0.9380066226166600  0.5662733634834979
  0.0522229082886688  0.5611018731448694  0.0675958786696575
  0.5837427563267299  0.3838157796392111  0.2527692015012086
  0.4161049235512161  0.8830487553364932  0.2466066508098528
  0.9159943178734176  0.6200549763804210  0.7525793204183115
  0.9162237855698111  0.8851706133202678  0.2532126411970642
  0.5807128011985977  0.1140240889473145  0.7529215649651854
  0.4071017940124570  0.6217674527843081  0.7502760504603105
  0.0968130988570136  0.1455855366446530  0.7527038036146741
  0.0847172825652698  0.3839578787644045  0.2471040317398301
  0.8347377365728958  0.1056297849056820  0.8313357504096472
  0.1631139067056359  0.6102038047997993  0.6695633869409553
  0.6637682313953337  0.8923504978170795  0.3305078720517921
  0.6626733349121080  0.6026740618566867  0.8301977215992736
  0.8358386040530708  0.3936095584919001  0.3302748709064222
  0.1650689639148402  0.8920086055424292  0.1686424117419438
  0.3376515276219844  0.3905455043695919  0.1682189849151519
  0.3354609621061956  0.1055483897822511  0.6685893466133672
  0.0403001768954518  0.8300395243971082  0.8743458791104078
  0.9597409392193723  0.3323632127537524  0.6260258743973260
  0.4589818035196618  0.1665207162465702  0.3741076402559778
  0.4511184624945657  0.3342916650966011  0.8739286036072437
  0.0408920245113968  0.6668672616024850  0.3743203171698180
  0.9598680844557212  0.1669398224776020  0.1250732099116641
  0.5415681912655069  0.6647450803304185  0.1247235011744991
  0.5402651574253892  0.8310096561225189  0.6256802254042890
  0.3737693718781386  0.2042404907615492  0.9597661575729060
  0.6305218416292018  0.7066732129374800  0.5423509333846895
  0.1304275157498290  0.7920823451282568  0.4577205926613784
  0.1226881400784831  0.7220411240185981  0.9617252183577285
  0.3693543689200575  0.2914750102118164  0.4575041457604270
  0.6349093057458276  0.7894930598323053  0.0426026318051330
  0.8716596872316429  0.2908469889801308  0.0410591285027364
  0.8690106410967622  0.2067517647348967  0.5430308745981202
  0.4473728344133419  0.8485611781874186  0.3767217751739765
  0.5551703549859986  0.3471257740004998  0.1228126894155990
  0.0502620901940713  0.1446478002075990  0.8790156889609725
  0.0521849643589600  0.3488839814504414  0.3769433629823797
  0.4491741277000344  0.6514353187043898  0.8779700358425708
  0.5528210808016935  0.1491401080987469  0.6229146855389996
  0.9466187850151976  0.6502586439493868  0.6228323419376216
  0.9468521956788060  0.8493721501611503  0.1239374872482971
  0.1407498275136392  0.2477451653912617  0.6234927891490079
  0.8597741486860093  0.7377745171056855  0.8745922355150598
  0.3608566770548403  0.7514414662047940  0.1227195054508029
  0.3593419733449495  0.7444369603156362  0.6232999394556176
  0.1405201233121106  0.2543227222040441  0.1241607994576750
  0.8601288221468809  0.7552682117519497  0.3761383077981360
  0.6398386622133425  0.2545214059358396  0.3760081545818312
  0.6340308393051438  0.2423044133660372  0.8736719258501648
  0.6306678518847184  0.7567165626665229  0.2130690317963845
  0.3690064607732820  0.2571736094489422  0.2862316624032277
  0.8721721193675172  0.2432200290904045  0.7143273719551402
  0.8692172394334091  0.2593018573178760  0.2125567297284390
  0.6286627177386550  0.7407339838278231  0.7135393321800124
  0.3655356352929986  0.2411333233937903  0.7855378873274310
  0.1312108202460040  0.7537789080016539  0.7861561701330864
  0.1308864953942233  0.7577844300828237  0.2864538807574689
