Na Al S 
 1.0000000000000000
    12.1026382039385112    0.0000000000000000    0.0000000000000007
    -0.0000000000000004    7.0938170788834114    0.0000000000000004
     0.0000000000000000    0.0000000000000000   21.6510149562332330
 Na  Al  S  
  39   8  32
Direct
  0.3480991013258868  0.9072946605469064  0.4985690376200780
  0.6489341989636320  0.4082831881447684 -0.0019645926580174
  0.1567242750191941  0.1018485665743576  0.9976371701997456
  0.1523439471428035  0.4086480886016695  0.4987884780755019
  0.3353354233916207  0.5873912437979535  0.9926319429252690
  0.6518860527709111  0.0907421439167261  0.5011723604023199
  0.8479225506329716  0.5910538444160152  0.5012000680200220
  0.8570189071503156  0.9045367409695674 -0.0005168414177326
  0.2877802078127195  0.5507383902279236  0.3626211492124602
  0.7141718408971796  0.0484842416095743  0.1364106598126923
  0.2789400040940394  0.8981799335277265  0.8652244971155444
  0.2121062524566844  0.0511110150457245  0.3627747399359240
  0.7123963439527162  0.4477735823729975  0.6377126678403546
  0.7875161731332119  0.9487211215250142  0.6381417933962132
  0.7862576785120871  0.5498062442128693  0.1350970361169553
  0.5525230591730087  0.5610320666288110  0.4346053972413398
  0.4504985588305434  0.0575875976094914  0.0660568364950070
  0.9581448296962417  0.4418713858405874  0.9338079280512819
  0.9472854274807261  0.0614814366650374  0.4350726074571696
  0.5532076000999020  0.9376265422606771  0.9350937185395548
  0.4465980665210000  0.4368622187999875  0.5657177008153496
  0.0538599702815215  0.9380066226166600  0.5662733634834980
  0.0522229082886688  0.5611018731448694  0.0675958786696575
  0.5837427563267299  0.3838157796392112  0.2527692015012086
  0.4161049235512160  0.8830487553364931  0.2466066508098529
  0.9159943178734177  0.6200549763804210  0.7525793204183117
  0.9162237855698111  0.8851706133202678  0.2532126411970642
  0.5807128011985977  0.1140240889473145  0.7529215649651855
  0.4071017940124570  0.6217674527843081  0.7502760504603105
  0.0968130988570136  0.1455855366446530  0.7527038036146743
  0.0847172825652699  0.3839578787644046  0.2471040317398301
  0.8347377365728960  0.1056297849056820  0.8313357504096472
  0.1631139067056359  0.6102038047997993  0.6695633869409554
  0.6637682313953338  0.8923504978170795  0.3305078720517920
  0.6626733349121081  0.6026740618566867  0.8301977215992736
  0.8358386040530708  0.3936095584919001  0.3302748709064222
  0.1650689639148402  0.8920086055424292  0.1686424117419438
  0.3376515276219844  0.3905455043695919  0.1682189849151519
  0.3354609621061956  0.1055483897822511  0.6685893466133673
  0.0403001768954518  0.8300395243971080  0.8743458791104080
  0.9597409392193723  0.3323632127537524  0.6260258743973260
  0.4589818035196618  0.1665207162465702  0.3741076402559778
  0.4511184624945657  0.3342916650966011  0.8739286036072438
  0.0408920245113968  0.6668672616024850  0.3743203171698179
  0.9598680844557211  0.1669398224776020  0.1250732099116641
  0.5415681912655070  0.6647450803304183  0.1247235011744991
  0.5402651574253892  0.8310096561225189  0.6256802254042890
  0.3737693718781387  0.2042404907615492  0.9597661575729060
  0.6305218416292019  0.7066732129374799  0.5423509333846895
  0.1304275157498290  0.7920823451282569  0.4577205926613785
  0.1226881400784831  0.7220411240185981  0.9617252183577286
  0.3693543689200575  0.2914750102118164  0.4575041457604271
  0.6349093057458276  0.7894930598323054  0.0426026318051330
  0.8716596872316429  0.2908469889801309  0.0410591285027364
  0.8690106410967622  0.2067517647348967  0.5430308745981202
  0.4473728344133419  0.8485611781874186  0.3767217751739766
  0.5551703549859986  0.3471257740004999  0.1228126894155990
  0.0502620901940713  0.1446478002075990  0.8790156889609725
  0.0521849643589600  0.3488839814504414  0.3769433629823797
  0.4491741277000344  0.6514353187043898  0.8779700358425708
  0.5528210808016936  0.1491401080987469  0.6229146855389996
  0.9466187850151976  0.6502586439493868  0.6228323419376215
  0.9468521956788061  0.8493721501611503  0.1239374872482971
  0.1407498275136392  0.2477451653912617  0.6234927891490080
  0.8597741486860094  0.7377745171056856  0.8745922355150599
  0.3608566770548404  0.7514414662047941  0.1227195054508029
  0.3593419733449496  0.7444369603156362  0.6232999394556177
  0.1405201233121106  0.2543227222040442  0.1241607994576751
  0.8601288221468810  0.7552682117519497  0.3761383077981359
  0.6398386622133425  0.2545214059358396  0.3760081545818313
  0.6340308393051438  0.2423044133660372  0.8736719258501648
  0.6306678518847185  0.7567165626665229  0.2130690317963845
  0.3690064607732820  0.2571736094489422  0.2862316624032277
  0.8721721193675172  0.2432200290904045  0.7143273719551402
  0.8692172394334091  0.2593018573178760  0.2125567297284390
  0.6286627177386551  0.7407339838278231  0.7135393321800124
  0.3655356352929986  0.2411333233937902  0.7855378873274311
  0.1312108202460040  0.7537789080016540  0.7861561701330864
  0.1308864953942233  0.7577844300828238  0.2864538807574689
Cartesian
  0.0000000000000000  0.0000000000000000  0.0000000000000000
  0.0000000000000000  0.0000000000000000  0.0000000000000000
  0.0000000000000000  0.0000000000000000  0.0000000000000000
  0.0000000000000000  0.0000000000000000  0.0000000000000000
  0.0000000000000000  0.0000000000000000  0.0000000000000000
  0.0000000000000000  0.0000000000000000  0.0000000000000000
  0.0000000000000000  0.0000000000000000  0.0000000000000000
  0.0000000000000000  0.0000000000000000  0.0000000000000000
  0.0000000000000000  0.0000000000000000  0.0000000000000000
  0.0000000000000000  0.0000000000000000  0.0000000000000000
  0.0000000000000000  0.0000000000000000  0.0000000000000000
  0.0000000000000000  0.0000000000000000  0.0000000000000000
  0.0000000000000000  0.0000000000000000  0.0000000000000000
  0.0000000000000000  0.0000000000000000  0.0000000000000000
  0.0000000000000000  0.0000000000000000  0.0000000000000000
  0.0000000000000000  0.0000000000000000  0.0000000000000000
  0.0000000000000000  0.0000000000000000  0.0000000000000000
  0.0000000000000000  0.0000000000000000  0.0000000000000000
  0.0000000000000000  0.0000000000000000  0.0000000000000000
  0.0000000000000000  0.0000000000000000  0.0000000000000000
  0.0000000000000000  0.0000000000000000  0.0000000000000000
  0.0000000000000000  0.0000000000000000  0.0000000000000000
  0.0000000000000000  0.0000000000000000  0.0000000000000000
  0.0000000000000000  0.0000000000000000  0.0000000000000000
  0.0000000000000000  0.0000000000000000  0.0000000000000000
  0.0000000000000000  0.0000000000000000  0.0000000000000000
  0.0000000000000000  0.0000000000000000  0.0000000000000000
  0.0000000000000000  0.0000000000000000  0.0000000000000000
  0.0000000000000000  0.0000000000000000  0.0000000000000000
  0.0000000000000000  0.0000000000000000  0.0000000000000000
  0.0000000000000000  0.0000000000000000  0.0000000000000000
  0.0000000000000000  0.0000000000000000  0.0000000000000000
  0.0000000000000000  0.0000000000000000  0.0000000000000000
  0.0000000000000000  0.0000000000000000  0.0000000000000000
  0.0000000000000000  0.0000000000000000  0.0000000000000000
  0.0000000000000000  0.0000000000000000  0.0000000000000000
  0.0000000000000000  0.0000000000000000  0.0000000000000000
  0.0000000000000000  0.0000000000000000  0.0000000000000000
  0.0000000000000000  0.0000000000000000  0.0000000000000000
  0.0000000000000000  0.0000000000000000  0.0000000000000000
  0.0000000000000000  0.0000000000000000  0.0000000000000000
  0.0000000000000000  0.0000000000000000  0.0000000000000000
  0.0000000000000000  0.0000000000000000  0.0000000000000000
  0.0000000000000000  0.0000000000000000  0.0000000000000000
  0.0000000000000000  0.0000000000000000  0.0000000000000000
  0.0000000000000000  0.0000000000000000  0.0000000000000000
  0.0000000000000000  0.0000000000000000  0.0000000000000000
  0.0000000000000000  0.0000000000000000  0.0000000000000000
  0.0000000000000000  0.0000000000000000  0.0000000000000000
  0.0000000000000000  0.0000000000000000  0.0000000000000000
  0.0000000000000000  0.0000000000000000  0.0000000000000000
  0.0000000000000000  0.0000000000000000  0.0000000000000000
  0.0000000000000000  0.0000000000000000  0.0000000000000000
  0.0000000000000000  0.0000000000000000  0.0000000000000000
  0.0000000000000000  0.0000000000000000  0.0000000000000000
  0.0000000000000000  0.0000000000000000  0.0000000000000000
  0.0000000000000000  0.0000000000000000  0.0000000000000000
  0.0000000000000000  0.0000000000000000  0.0000000000000000
  0.0000000000000000  0.0000000000000000  0.0000000000000000
  0.0000000000000000  0.0000000000000000  0.0000000000000000
  0.0000000000000000  0.0000000000000000  0.0000000000000000
  0.0000000000000000  0.0000000000000000  0.0000000000000000
  0.0000000000000000  0.0000000000000000  0.0000000000000000
  0.0000000000000000  0.0000000000000000  0.0000000000000000
  0.0000000000000000  0.0000000000000000  0.0000000000000000
  0.0000000000000000  0.0000000000000000  0.0000000000000000
  0.0000000000000000  0.0000000000000000  0.0000000000000000
  0.0000000000000000  0.0000000000000000  0.0000000000000000
  0.0000000000000000  0.0000000000000000  0.0000000000000000
  0.0000000000000000  0.0000000000000000  0.0000000000000000
  0.0000000000000000  0.0000000000000000  0.0000000000000000
  0.0000000000000000  0.0000000000000000  0.0000000000000000
  0.0000000000000000  0.0000000000000000  0.0000000000000000
  0.0000000000000000  0.0000000000000000  0.0000000000000000
  0.0000000000000000  0.0000000000000000  0.0000000000000000
  0.0000000000000000  0.0000000000000000  0.0000000000000000
  0.0000000000000000  0.0000000000000000  0.0000000000000000
  0.0000000000000000  0.0000000000000000  0.0000000000000000
  0.0000000000000000  0.0000000000000000  0.0000000000000000
