mp-560538_Na3AlS3 NEB image 00          
   1.0000000000000000     
    12.1828203277415312    0.0000000000000000    0.0000000000000007
    -0.0000000000000005    7.5674693205415418    1.1970639402156102
     0.0000000000000000    0.0113082934473333   13.7304524371335805
   Na   Al   S 
    23     8    24
Direct
  0.0019603211190740  0.0464291560917017  0.7786828405425504
  0.7585319915493979 -0.0110198508585421  0.0055137810168961
  0.8223996981591207  0.5030757023369016  0.7525029160545662
  0.7548320616915047  0.9851802402274453  0.5171860278313110
  0.9547401771471336  0.0973518401534178  0.3330330998691784
  0.2388024240527222  0.5526562281080292  0.4814939692363620
  0.8219283441982791  0.5064083853744475  0.2522973203950492
  0.2359665518325309  0.0280230357164244  0.4974092279139658
  0.7501702919796155  0.4864827492754953  0.0091397772965576
  0.3847912425342341  0.3671723286849128  0.6576497226354909
  0.2562726989035491  0.5047867272870532  0.9937089084634152
  0.2540315114602633  0.0119747669383930  0.9946032380943539
  0.7450505889625045  0.4833815394544607  0.5144629873305572
  0.1803004129566101  0.4865781805272505  0.2479243987878036
  0.0331878109469318  0.9074724316080141  0.1718821427851326
  0.5444626502418098  0.6021049202445028  0.3328615143734576
  0.3124218427077077  0.9740036147966555  0.7579823198461629
  0.3184699845185073  0.9893306735569927  0.2518103033343619
  0.1647787163181735  0.5266856060299688  0.7522400628688750
  0.4742382029605520  0.4025754885097722  0.1820034425912209
  0.6865109237497113  0.0092426301624045  0.7532830062767716
  0.5212321927725648  0.5797395264537192  0.8063302992255851
  0.6778527871399060  0.0056436490601429  0.2498495617573046
  0.0054866007226342  0.3200130596081223  0.0737451166545823
  0.0082076318398587  0.3434651209949643  0.5753442809498104
  0.5067673300219566  0.1783581093773996  0.4308361936041477
  0.4963379433428178  0.8320619071645198  0.5742843418618712
  0.5054311007654044  0.1668132395718002  0.9255377522960139
  0.4956125643827660  0.8225188806015808  0.0740841964454402
  0.9906630166269154  0.6817809122674097  0.4291661486310731
  0.9954875640697540  0.6626841475990206  0.9305928222332071
  0.3546331156906701  0.3037844457879723  0.8603018049209009
  0.1663080088760822  0.2096743982533768  0.1296501806924535
  0.3598144153783625  0.3313036672839903  0.3696558747489149
  0.1507636871482811  0.7961638878307309  0.8755922752398038
 -0.0076485917399935  0.6066516472089022  0.1007488891991201
  0.6442694473029036  0.6854399740011093  0.1424181064660651
  0.8288712929436989  0.7855780426097561  0.3735828991754391
  0.1336547016739579  0.8371031243881408  0.3587706922437878
  0.3371010885140827  0.7182822452089611  0.6317099100114427
  0.4988018095318064  0.8747203290117449  0.9047130350438757
  0.6636729538835355  0.2876552112101975  0.8729845150776973
  0.8592301669248751  0.1765937402095399  0.1440152440274254
  0.1667488138134474  0.2311839921231578  0.6388696417239784
  0.0115401572265176  0.3938546029531906  0.4047876196036158
  0.6471895465696564  0.6979701103668642  0.6385262726819096
  0.4999935436436134  0.1126384990093007  0.0960467523831447
  0.6648972266989190  0.2888212204318186  0.3684547755042069
  0.8553489442013501  0.2101743996038178  0.6365423265469621
  0.9993186561304650  0.6336873322695368  0.5970899143028441
 -0.0008000562323164  0.3729719967722042  0.9050709814380160
  0.8407907213499355  0.7871584278103743  0.8699777676982476
  0.5126088744107689  0.1197608722069979  0.5995329304971053
  0.3386578815672493  0.7036587166570750  0.1342240215219763
  0.4903127934904614  0.8925380707388492  0.4043733799048301

  0.00000000E+00  0.00000000E+00  0.00000000E+00
  0.00000000E+00  0.00000000E+00  0.00000000E+00
  0.00000000E+00  0.00000000E+00  0.00000000E+00
  0.00000000E+00  0.00000000E+00  0.00000000E+00
  0.00000000E+00  0.00000000E+00  0.00000000E+00
  0.00000000E+00  0.00000000E+00  0.00000000E+00
  0.00000000E+00  0.00000000E+00  0.00000000E+00
  0.00000000E+00  0.00000000E+00  0.00000000E+00
  0.00000000E+00  0.00000000E+00  0.00000000E+00
  0.00000000E+00  0.00000000E+00  0.00000000E+00
  0.00000000E+00  0.00000000E+00  0.00000000E+00
  0.00000000E+00  0.00000000E+00  0.00000000E+00
  0.00000000E+00  0.00000000E+00  0.00000000E+00
  0.00000000E+00  0.00000000E+00  0.00000000E+00
  0.00000000E+00  0.00000000E+00  0.00000000E+00
  0.00000000E+00  0.00000000E+00  0.00000000E+00
  0.00000000E+00  0.00000000E+00  0.00000000E+00
  0.00000000E+00  0.00000000E+00  0.00000000E+00
  0.00000000E+00  0.00000000E+00  0.00000000E+00
  0.00000000E+00  0.00000000E+00  0.00000000E+00
  0.00000000E+00  0.00000000E+00  0.00000000E+00
  0.00000000E+00  0.00000000E+00  0.00000000E+00
  0.00000000E+00  0.00000000E+00  0.00000000E+00
  0.00000000E+00  0.00000000E+00  0.00000000E+00
  0.00000000E+00  0.00000000E+00  0.00000000E+00
  0.00000000E+00  0.00000000E+00  0.00000000E+00
  0.00000000E+00  0.00000000E+00  0.00000000E+00
  0.00000000E+00  0.00000000E+00  0.00000000E+00
  0.00000000E+00  0.00000000E+00  0.00000000E+00
  0.00000000E+00  0.00000000E+00  0.00000000E+00
  0.00000000E+00  0.00000000E+00  0.00000000E+00
  0.00000000E+00  0.00000000E+00  0.00000000E+00
  0.00000000E+00  0.00000000E+00  0.00000000E+00
  0.00000000E+00  0.00000000E+00  0.00000000E+00
  0.00000000E+00  0.00000000E+00  0.00000000E+00
  0.00000000E+00  0.00000000E+00  0.00000000E+00
  0.00000000E+00  0.00000000E+00  0.00000000E+00
  0.00000000E+00  0.00000000E+00  0.00000000E+00
  0.00000000E+00  0.00000000E+00  0.00000000E+00
  0.00000000E+00  0.00000000E+00  0.00000000E+00
  0.00000000E+00  0.00000000E+00  0.00000000E+00
  0.00000000E+00  0.00000000E+00  0.00000000E+00
  0.00000000E+00  0.00000000E+00  0.00000000E+00
  0.00000000E+00  0.00000000E+00  0.00000000E+00
  0.00000000E+00  0.00000000E+00  0.00000000E+00
  0.00000000E+00  0.00000000E+00  0.00000000E+00
  0.00000000E+00  0.00000000E+00  0.00000000E+00
  0.00000000E+00  0.00000000E+00  0.00000000E+00
  0.00000000E+00  0.00000000E+00  0.00000000E+00
  0.00000000E+00  0.00000000E+00  0.00000000E+00
  0.00000000E+00  0.00000000E+00  0.00000000E+00
  0.00000000E+00  0.00000000E+00  0.00000000E+00
  0.00000000E+00  0.00000000E+00  0.00000000E+00
  0.00000000E+00  0.00000000E+00  0.00000000E+00
  0.00000000E+00  0.00000000E+00  0.00000000E+00
