mp-560538_Na3AlS3 NEB image 00
  1.0
     12.1828203277415312     -0.0000000000000000      0.0000000000000007
     -0.0000000000000005      7.5674693205415418      1.1970639402156102
      0.0000000000000000      0.0113082934473333     13.7304524371335805
  Na  Al  S
  23  8  24
Direct
  0.9826682686377871  0.0820165811434151  0.8060758187370872
  0.7522404633150156  0.9950796652788053  0.0134970982172956
  0.8070840797108489  0.5346381969101200  0.7597158409044048
  0.7372710363907881  0.9191478516399552  0.5256450028473901
  0.9130063786728384  0.1103439008719866  0.3650815318568538
  0.2372710363907880  0.5808521483600448  0.4743549971526100
  0.8266369426750443  0.5040439343281679  0.2435505521780384
  0.2627289636092120  0.0808521483600449  0.4743549971526100
  0.7477595366849844  0.4950796652788054  0.0134970982172956
  0.4130063786728382  0.3896560991280134  0.6349184681431461
  0.2522404633150157  0.5049203347211947  0.9865029017827043
  0.2477595366849843  0.0049203347211946  0.9865029017827043
  0.7627289636092119  0.4191478516399551  0.5256450028473901
  0.1929159202891509  0.4653618030898799  0.2402841590955952
  0.0173317313622130  0.9179834188565849  0.1939241812629127
  0.5869936213271616  0.6103439008719866  0.3650815318568538
  0.3266369426750442  0.9959560656718321  0.7564494478219617
  0.3070840797108491  0.9653618030898800  0.2402841590955952
  0.1733630573249558  0.4959560656718321  0.7564494478219617
  0.4826682686377869  0.4179834188565849  0.1939241812629127
  0.6929159202891511  0.0346381969101202  0.7597158409044048
  0.5173317313622129  0.5820165811434151  0.8060758187370872
  0.6733630573249557  0.0040439343281679  0.2435505521780384
  0.0067626109413173  0.3258564306991785  0.0733305490984901
  0.0214489848084214  0.3200296651210137  0.5656039150852453
  0.5214489848084215  0.1799703348789863  0.4343960849147546
  0.4785510151915786  0.8200296651210136  0.5656039150852453
  0.5067626109413174  0.1741435693008215  0.9266694509015099
  0.4932373890586827  0.8258564306991785  0.0733305490984901
  0.9785510151915785  0.6799703348789864  0.4343960849147546
  0.9932373890586826  0.6741435693008215  0.9266694509015099
  0.3593825380642162  0.3094020426091944  0.8535399846036746
  0.1667712772377825  0.2027207795102694  0.1230847195988898
  0.3904178558755794  0.3790111336003696  0.3872716908825476
  0.1406174619357839  0.8094020426091945  0.8535399846036746
  0.0029240206290832  0.6182726564142902  0.0967124268129580
  0.6406174619357839  0.6905979573908055  0.1464600153963252
  0.8157815180915312  0.7614231495176198  0.3704838582480125
  0.1095821441244206  0.8790111336003698  0.3872716908825476
  0.3157815180915312  0.7385768504823802  0.6295161417519877
  0.5029240206290833  0.8817273435857098  0.9032875731870420
  0.6667712772377825  0.2972792204897306  0.8769152804011101
  0.8593825380642161  0.1905979573908057  0.1464600153963252
  0.1842184819084688  0.2385768504823803  0.6295161417519877
  0.0325867594767946  0.4102779423369707  0.3965161822424967
  0.6095821441244207  0.6209888663996302  0.6127283091174524
  0.4970759793709168  0.1182726564142902  0.0967124268129580
  0.6842184819084688  0.2614231495176197  0.3704838582480125
  0.8904178558755793  0.1209888663996303  0.6127283091174524
  0.9674132405232054  0.5897220576630293  0.6034838177575033
  0.9970759793709167  0.3817273435857098  0.9032875731870420
  0.8332287227622175  0.7972792204897307  0.8769152804011101
  0.5325867594767946  0.0897220576630293  0.6034838177575033
  0.3332287227622175  0.7027207795102693  0.1230847195988898
  0.4674132405232054  0.9102779423369707  0.3965161822424967
