Na10 In2 S8                             
  1.0000000000
     13.6661377823582608     -0.0000000000000000     -0.2544940458940458
     -0.0000000000000010     17.6718505513838551      0.0000000000000010
     -0.0096344125613276      0.0000000000000000     15.7609693843336860
  Na  In  S
  80  16  64
Direct
  0.3282103368583980  0.2600816195751324  0.3324767433532849
  0.1717896631416020  0.0100816195751323  0.1675232566467151
  0.1717896631416020  0.2399183804248677  0.1675232566467151
  0.3282103368583980  0.4899183804248676  0.3324767433532849
  0.4874661270573107  0.1250000000000000  0.2643896362021486
  0.0125338729426893  0.3750000000000000  0.2356103637978514
  0.3345713847084060  0.1250000000000000  0.0803984979131556
  0.1654286152915939  0.3750000000000000  0.4196015020868444
  0.0000000000000000  0.0000000000000000  0.0000000000000000
  0.0000000000000000  0.2500000000000000  0.0000000000000000
  0.3282103368583980  0.2600816195751324  0.8324767433532849
  0.1717896631416020  0.0100816195751323  0.6675232566467151
  0.1717896631416020  0.2399183804248677  0.6675232566467151
  0.3282103368583980  0.4899183804248676  0.8324767433532849
  0.4874661270573107  0.1250000000000000  0.7643896362021486
  0.0125338729426893  0.3750000000000000  0.7356103637978514
  0.3345713847084060  0.1250000000000000  0.5803984979131556
  0.1654286152915939  0.3750000000000000  0.9196015020868444
  0.0000000000000000  0.0000000000000000  0.5000000000000000
  0.0000000000000000  0.2500000000000000  0.5000000000000000
  0.3282103368583980  0.7600816195751323  0.3324767433532849
  0.1717896631416020  0.5100816195751323  0.1675232566467151
  0.1717896631416020  0.7399183804248677  0.1675232566467151
  0.3282103368583980  0.9899183804248677  0.3324767433532849
  0.4874661270573107  0.6250000000000000  0.2643896362021486
  0.0125338729426893  0.8750000000000000  0.2356103637978514
  0.3345713847084060  0.6250000000000000  0.0803984979131556
  0.1654286152915939  0.8750000000000000  0.4196015020868444
  0.0000000000000000  0.5000000000000000  0.0000000000000000
  0.0000000000000000  0.7500000000000000  0.0000000000000000
  0.3282103368583980  0.7600816195751323  0.8324767433532849
  0.1717896631416020  0.5100816195751323  0.6675232566467151
  0.1717896631416020  0.7399183804248677  0.6675232566467151
  0.3282103368583980  0.9899183804248677  0.8324767433532849
  0.4874661270573107  0.6250000000000000  0.7643896362021486
  0.0125338729426893  0.8750000000000000  0.7356103637978514
  0.3345713847084060  0.6250000000000000  0.5803984979131556
  0.1654286152915939  0.8750000000000000  0.9196015020868444
  0.0000000000000000  0.5000000000000000  0.5000000000000000
  0.0000000000000000  0.7500000000000000  0.5000000000000000
  0.8282103368583980  0.2600816195751324  0.3324767433532849
  0.6717896631416020  0.0100816195751323  0.1675232566467151
  0.6717896631416020  0.2399183804248677  0.1675232566467151
  0.8282103368583980  0.4899183804248676  0.3324767433532849
  0.9874661270573107  0.1250000000000000  0.2643896362021486
  0.5125338729426894  0.3750000000000000  0.2356103637978514
  0.8345713847084060  0.1250000000000000  0.0803984979131556
  0.6654286152915939  0.3750000000000000  0.4196015020868444
  0.5000000000000000  0.0000000000000000  0.0000000000000000
  0.5000000000000000  0.2500000000000000  0.0000000000000000
  0.8282103368583980  0.2600816195751324  0.8324767433532849
  0.6717896631416020  0.0100816195751323  0.6675232566467151
  0.6717896631416020  0.2399183804248677  0.6675232566467151
  0.8282103368583980  0.4899183804248676  0.8324767433532849
  0.9874661270573107  0.1250000000000000  0.7643896362021486
  0.5125338729426894  0.3750000000000000  0.7356103637978514
  0.8345713847084060  0.1250000000000000  0.5803984979131556
  0.6654286152915939  0.3750000000000000  0.9196015020868444
  0.5000000000000000  0.0000000000000000  0.5000000000000000
  0.5000000000000000  0.2500000000000000  0.5000000000000000
  0.8282103368583980  0.7600816195751323  0.3324767433532849
  0.6717896631416020  0.5100816195751323  0.1675232566467151
  0.6717896631416020  0.7399183804248677  0.1675232566467151
  0.8282103368583980  0.9899183804248677  0.3324767433532849
  0.9874661270573107  0.6250000000000000  0.2643896362021486
  0.5125338729426894  0.8750000000000000  0.2356103637978514
  0.8345713847084060  0.6250000000000000  0.0803984979131556
  0.6654286152915939  0.8750000000000000  0.4196015020868444
  0.5000000000000000  0.5000000000000000  0.0000000000000000
  0.5000000000000000  0.7500000000000000  0.0000000000000000
  0.8282103368583980  0.7600816195751323  0.8324767433532849
  0.6717896631416020  0.5100816195751323  0.6675232566467151
  0.6717896631416020  0.7399183804248677  0.6675232566467151
  0.8282103368583980  0.9899183804248677  0.8324767433532849
  0.9874661270573107  0.6250000000000000  0.7643896362021486
  0.5125338729426894  0.8750000000000000  0.7356103637978514
  0.8345713847084060  0.6250000000000000  0.5803984979131556
  0.6654286152915939  0.8750000000000000  0.9196015020868444
  0.5000000000000000  0.5000000000000000  0.5000000000000000
  0.5000000000000000  0.7500000000000000  0.5000000000000000
  0.3192700026442126  0.3750000000000000  0.0882179789012286
  0.1807299973557873  0.1250000000000000  0.4117820210987713
  0.3192700026442126  0.3750000000000000  0.5882179789012286
  0.1807299973557873  0.1250000000000000  0.9117820210987713
  0.3192700026442126  0.8750000000000000  0.0882179789012286
  0.1807299973557873  0.6250000000000000  0.4117820210987713
  0.3192700026442126  0.8750000000000000  0.5882179789012286
  0.1807299973557873  0.6250000000000000  0.9117820210987713
  0.8192700026442126  0.3750000000000000  0.0882179789012286
  0.6807299973557873  0.1250000000000000  0.4117820210987713
  0.8192700026442126  0.3750000000000000  0.5882179789012286
  0.6807299973557873  0.1250000000000000  0.9117820210987713
  0.8192700026442126  0.8750000000000000  0.0882179789012286
  0.6807299973557873  0.6250000000000000  0.4117820210987713
  0.8192700026442126  0.8750000000000000  0.5882179789012286
  0.6807299973557873  0.6250000000000000  0.9117820210987713
  0.3802828361730929  0.3750000000000000  0.4400192707170386
  0.1197171638269072  0.1250000000000000  0.0599807292829614
  0.1165907249900981  0.0095027621715325  0.3358344892541320
  0.3834092750099018  0.2595027621715325  0.1641655107458681
  0.3834092750099018  0.4904972378284675  0.1641655107458681
  0.1165907249900981  0.2404972378284675  0.3358344892541320
  0.3642584312392371  0.1250000000000000  0.4107465474466141
  0.1357415687607629  0.3750000000000000  0.0892534525533859
  0.3802828361730929  0.3750000000000000  0.9400192707170386
  0.1197171638269072  0.1250000000000000  0.5599807292829614
  0.1165907249900981  0.0095027621715325  0.8358344892541321
  0.3834092750099018  0.2595027621715325  0.6641655107458682
  0.3834092750099018  0.4904972378284675  0.6641655107458682
  0.1165907249900981  0.2404972378284675  0.8358344892541321
  0.3642584312392371  0.1250000000000000  0.9107465474466141
  0.1357415687607629  0.3750000000000000  0.5892534525533859
  0.3802828361730929  0.8750000000000000  0.4400192707170386
  0.1197171638269072  0.6250000000000000  0.0599807292829614
  0.1165907249900981  0.5095027621715325  0.3358344892541320
  0.3834092750099018  0.7595027621715325  0.1641655107458681
  0.3834092750099018  0.9904972378284675  0.1641655107458681
  0.1165907249900981  0.7404972378284675  0.3358344892541320
  0.3642584312392371  0.6250000000000000  0.4107465474466141
  0.1357415687607629  0.8750000000000000  0.0892534525533859
  0.3802828361730929  0.8750000000000000  0.9400192707170386
  0.1197171638269072  0.6250000000000000  0.5599807292829614
  0.1165907249900981  0.5095027621715325  0.8358344892541321
  0.3834092750099018  0.7595027621715325  0.6641655107458682
  0.3834092750099018  0.9904972378284675  0.6641655107458682
  0.1165907249900981  0.7404972378284675  0.8358344892541321
  0.3642584312392371  0.6250000000000000  0.9107465474466141
  0.1357415687607629  0.8750000000000000  0.5892534525533859
  0.8802828361730929  0.3750000000000000  0.4400192707170386
  0.6197171638269071  0.1250000000000000  0.0599807292829614
  0.6165907249900981  0.0095027621715325  0.3358344892541320
  0.8834092750099019  0.2595027621715325  0.1641655107458681
  0.8834092750099019  0.4904972378284675  0.1641655107458681
  0.6165907249900981  0.2404972378284675  0.3358344892541320
  0.8642584312392371  0.1250000000000000  0.4107465474466141
  0.6357415687607629  0.3750000000000000  0.0892534525533859
  0.8802828361730929  0.3750000000000000  0.9400192707170386
  0.6197171638269071  0.1250000000000000  0.5599807292829614
  0.6165907249900981  0.0095027621715325  0.8358344892541321
  0.8834092750099019  0.2595027621715325  0.6641655107458682
  0.8834092750099019  0.4904972378284675  0.6641655107458682
  0.6165907249900981  0.2404972378284675  0.8358344892541321
  0.8642584312392371  0.1250000000000000  0.9107465474466141
  0.6357415687607629  0.3750000000000000  0.5892534525533859
  0.8802828361730929  0.8750000000000000  0.4400192707170386
  0.6197171638269071  0.6250000000000000  0.0599807292829614
  0.6165907249900981  0.5095027621715325  0.3358344892541320
  0.8834092750099019  0.7595027621715325  0.1641655107458681
  0.8834092750099019  0.9904972378284675  0.1641655107458681
  0.6165907249900981  0.7404972378284675  0.3358344892541320
  0.8642584312392371  0.6250000000000000  0.4107465474466141
  0.6357415687607629  0.8750000000000000  0.0892534525533859
  0.8802828361730929  0.8750000000000000  0.9400192707170386
  0.6197171638269071  0.6250000000000000  0.5599807292829614
  0.6165907249900981  0.5095027621715325  0.8358344892541321
  0.8834092750099019  0.7595027621715325  0.6641655107458682
  0.8834092750099019  0.9904972378284675  0.6641655107458682
  0.6165907249900981  0.7404972378284675  0.8358344892541321
  0.8642584312392371  0.6250000000000000  0.9107465474466141
  0.6357415687607629  0.8750000000000000  0.5892534525533859
