Na Al S                                 
   1.0000000000000000     
    12.1828203277415312    0.0000000000000000    0.0000000000000007
    -0.0000000000000005    7.5674693205415418    1.1970639402156102
     0.0000000000000000    0.0113082934473333   13.7304524371335805
   Na   Al   S 
    23     8    24
Direct
  0.9721354360695358  0.0661481531653223  0.7903539641355906
  0.7989373301001166  0.2182313331760852  0.9651319524323583
  0.8009521693639599  0.5345049722202120  0.7489489373963494
  0.7285202783135034  0.9168044187600657  0.5508074705744548
  0.8997530718494247  0.0782301810695074  0.4198614158602680
  0.2459687918118760  0.5672966275311992  0.5063347851086704
  0.7963261003428954  0.5171529431902826  0.2844177554557419
  0.2712740013438477  0.0639738467729103  0.5090788914129263
  0.7131398391986750  0.5976931120106457  0.9695908312339441
  0.4169608950516448  0.3859559403754176  0.6430284551571788
  0.2747226379716636  0.5154272863301443  0.9330337884389621
  0.2635793731143963  0.0112643457568211  0.9324341142511301
  0.7464458652496262  0.4156667381899695  0.5487702584479166
  0.2036460183988211  0.4465344708231598  0.3035905265466852
  0.2426358021436030  0.9558050573896963  0.2630485189441103
  0.5828953396930530  0.6009563022160975  0.3907389687248113
  0.3483578944959049  0.0087110606809233  0.7450380324804797
  0.0631146248754888  0.8874768785597098  0.6552969901119923
  0.1778672963046191  0.4951081605503944  0.7417542676963009
  0.5051030280440258  0.4046194865201969  0.2190501618831036
  0.6886375740209161  0.0258124692075938  0.7577190279183554
  0.5239084039202595  0.5887739899468301  0.7949033344274099
  0.6985258602872548  0.9934819171914029  0.2881207371160244
  0.9779699498607144  0.3641636395814771  0.9377812234638299
  0.0171546225510966  0.2825917444716595  0.6363254959916489
  0.5384303261437111  0.1280230516892402  0.5213896593524865
  0.4843725122523423  0.8074250142357187  0.6016765800670214
  0.5546262318986237  0.1769963995522872  0.8428341719784811
  0.6322626610173288  0.9289542458581082  0.9965360939400867
  0.9516016264046243  0.7161412665686839  0.5499840680312644
  0.9493592331994094  0.8409725118683369  0.7678948966398877
  0.3943331294418400  0.3193409844003554  0.7488847942236418
  0.3189499770418891  0.0793245021720210  0.1089656846652858
  0.4302748905631191  0.3516040368082400  0.5281949220527125
  0.1629269216192100  0.8907035042568978  0.7300120581684837
  0.8529448969114881  0.1630703013406531  0.0606732983037830
  0.6522254914090908  0.7174082653301639  0.1516652060462533
  0.7591466992496052  0.7442745708124647  0.4421557232823190
  0.0981486852369429  0.8914552691602182  0.5525449878496715
  0.3153291527626436  0.7414240519032518  0.6436280167426673
  0.5714027523582175  0.9325779924538722  0.7989864770449060
  0.6458933610721971  0.2854419584816767  0.8129168491555205
  0.5124624249124778  0.8983532032675399  0.2067535128801552
  0.1963564485332014  0.2252120640187130  0.6542730584198253
  0.0179039630432740  0.3495425262237077  0.5238178493744883
  0.5912990046592768  0.6078329535698899  0.6254072863298745
  0.5595852277093485  0.1666468860018711  0.0200531238547654
  0.6496451210988425  0.2347995753504861  0.4602733595868642
  0.8771158565982233  0.0090229389293697  0.6431456720321052
  0.9821065735381822  0.6357034130402397  0.6587939431801502
  0.9943349276679569  0.3488971874900813  0.5764629649422019
  0.7280508693977055  0.8727848854200388  0.7903514853205138
  0.5430763230492488  0.0715172211843580  0.6365104278491387
  0.4752638249958565  0.7270152911361407  0.1064366666261733
  0.4942246417507903  0.8869196346354684  0.4952160304452704

             NaN             NaN             NaN
             NaN             NaN             NaN
             NaN             NaN             NaN
             NaN             NaN             NaN
             NaN             NaN             NaN
             NaN             NaN             NaN
             NaN             NaN             NaN
             NaN             NaN             NaN
             NaN             NaN             NaN
             NaN             NaN             NaN
             NaN             NaN             NaN
             NaN             NaN             NaN
             NaN             NaN             NaN
             NaN             NaN             NaN
             NaN             NaN             NaN
             NaN             NaN             NaN
             NaN             NaN             NaN
             NaN             NaN             NaN
             NaN             NaN             NaN
             NaN             NaN             NaN
             NaN             NaN             NaN
             NaN             NaN             NaN
             NaN             NaN             NaN
             NaN             NaN             NaN
             NaN             NaN             NaN
             NaN             NaN             NaN
             NaN             NaN             NaN
             NaN             NaN             NaN
             NaN             NaN             NaN
             NaN             NaN             NaN
             NaN             NaN             NaN
             NaN             NaN             NaN
             NaN             NaN             NaN
             NaN             NaN             NaN
             NaN             NaN             NaN
             NaN             NaN             NaN
             NaN             NaN             NaN
             NaN             NaN             NaN
             NaN             NaN             NaN
             NaN             NaN             NaN
             NaN             NaN             NaN
             NaN             NaN             NaN
             NaN             NaN             NaN
             NaN             NaN             NaN
             NaN             NaN             NaN
             NaN             NaN             NaN
             NaN             NaN             NaN
             NaN             NaN             NaN
             NaN             NaN             NaN
             NaN             NaN             NaN
             NaN             NaN             NaN
             NaN             NaN             NaN
             NaN             NaN             NaN
             NaN             NaN             NaN
             NaN             NaN             NaN
