Na3AlS3 bottleneck NEB image 07
  1.0
     12.1828203277415312      0.0000000000000000      0.0000000000000007
     -0.0000000000000005      7.5674693205415418      1.1970639402156102
      0.0000000000000000      0.0113082934473333     13.7304524371335805
  Na  Al  S
  23  8  24
Direct
  0.8742632589086674  0.0806699262865024  0.9144350874079743
  0.8029973015974786  0.3522407490749679  0.8211373013484795
  0.7667838936136984  0.8231986228515301  0.5895574430370605
  0.8547675984500797  0.0809802333332006  0.3926757935642327
  0.1564851148166668  0.3999335394467919  0.4386382949808388
  0.9536610781810083  0.5226183036704366  0.3133939342409388
  0.1189636973156212  0.1667005602288233  0.4096959879661642
  0.6003665175930476  0.3736961064331482  0.1452603387974999
  0.4449745061617330  0.3986879198138834  0.6703655028040254
  0.2583941871885853  0.5051375463604428  0.9851883916847992
  0.2441425970145787  0.0110197459878509  0.9858066869555197
  0.7575541358190092  0.4633669863327555  0.5076980676607867
  0.1843877028418364  0.4959150041895310  0.2452682025581884
  0.0280874858680119  0.9185746042932834  0.1837004032890203
  0.5669104912739765  0.5982280615734935  0.3387628402432430
  0.3227589233578936  0.9866549607312141  0.7501583626055295
  0.0322848203293404  0.9236609806009813  0.6949346383533896
  0.3195869875764212  0.9879156680583979  0.2435234609426759
  0.1770631276584193  0.4923925061621145  0.7492567248415883
  0.4689588517916914  0.4117565672922918  0.1788114989877198
  0.6850557279360600  0.0149482692832633  0.7503161806172849
  0.5690336886982469  0.5829173376520871  0.8524944995450967
  0.6788157463712450  0.0048648635108466  0.2322984100503737
  0.0087605173423787  0.3337822425975370  0.0726940489571569
  0.0111681247025231  0.3302400229756778  0.5700304895033647
  0.5121502347075784  0.1707635457872293  0.4250840825598906
  0.4935647306316658  0.8219292417588863  0.5677015509881101
  0.5087231670849798  0.1674429264706541  0.9232165508421263
  0.4956598786664585  0.8281374255092524  0.0699213681150196
  0.9943123862340342  0.6763145132391767  0.4254491473084933
  0.9974285977060777  0.6673764656113916  0.9232594924083185
  0.3570328262868824  0.2969253440471218  0.8550673865035320
  0.1687165599213321  0.2160423559988924  0.1257965991542887
  0.3668689362863008  0.3282705834434611  0.3645287361241616
  0.1516508929139660  0.7912740545466295  0.8588253194622834
  0.9994940311522224  0.6246296618477511  0.0930396693617672
  0.6380516992026064  0.6805500171000733  0.1433863068924673
  0.8329170020676375  0.7795930023145233  0.3658544944521335
  0.1412202332527202  0.8233019865155824  0.3602164350514927
  0.3346943538298470  0.7157272583902010  0.6289099729689575
  0.5062029182868555  0.8767651639804307  0.9007752627839014
  0.6632247807339956  0.2982590796160690  0.8659168736973375
  0.8623086651290750  0.1906513947381774  0.1417707993081000
  0.1703451376463450  0.2183700987583261  0.6289987328496475
  0.0148951292767735  0.3899055916427341  0.4000477842989297
  0.6398581870468009  0.6650620422705348  0.6256876732498503
  0.5005535053628152  0.1178998782826677  0.0924949969757977
  0.6732178389124897  0.2737979597563650  0.3641351961597182
  0.8611646560153035  0.1814532319800074  0.6268384832926146
  0.9955104745411942  0.6192873209030219  0.5949202683625880
  0.9998649375762505  0.3747768822265962  0.9036071788615431
  0.8436714417569277  0.7936493623789957  0.8604250530323860
  0.5157290597550542  0.1075240458431934  0.5946826539260628
  0.3347866625296738  0.7121828422438177  0.1218819137089359
  0.4890588077519092  0.8869557287783741  0.3979603281392847
