Na Al S 
 1.0000000000000000
    12.1828203277415312   -0.0000000000000000    0.0000000000000007
    -0.0000000000000005    7.5674693205415418    1.1970639402156102
     0.0000000000000000    0.0113082934473333   13.7304524371335805
 Na  Al  S  
  23   8  24
Direct
  0.9721354360695372  0.0661481531653215  0.7903539641355924
  0.7989373301001186  0.2182313331760822 -0.0348680475676423
  0.8009521693639625  0.5345049722202123  0.7489489373963504
  0.7285202783135050  0.9168044187600677  0.5508074705744560
  0.8997530718494235  0.0782301810695094  0.4198614158602670
  0.2459687918118743  0.5672966275312000  0.5063347851086735
  0.7963261003428977  0.5171529431902828  0.2844177554557427
  0.2712740013438501  0.0639738467729074  0.5090788914129237
  0.7131398391986778  0.5976931120106445 -0.0304091687660535
  0.4169608950516456  0.3859559403754165  0.6430284551571821
  0.2747226379716627  0.5154272863301440  0.9330337884389619
  0.2635793731143975  0.0112643457568180  0.9324341142511333
  0.7464458652496269  0.4156667381899691  0.5487702584479142
  0.2036460183988184  0.4465344708231593  0.3035905265466870
  0.2426358021436011  0.9558050573896982  0.2630485189441103
  0.5828953396930564  0.6009563022160945  0.3907389687248110
  0.3483578944959060  1.0087110606809198  0.7450380324804831
  0.0631146248754878  0.8874768785597125  0.6552969901119939
  0.1778672963046224  0.4951081605503976  0.7417542676963040
  0.5051030280440260  0.4046194865201999  0.2190501618831061
  0.6886375740209191  0.0258124692075916  0.7577190279183524
  0.5239084039202603  0.5887739899468301  0.7949033344274096
  0.6985258602872566 -0.0065180828085968  0.2881207371160257
 -0.0220300501392824  0.3641636395814746 -0.0622187765361667
  0.0171546225510950  0.2825917444716566  0.6363254959916518
  0.5384303261437139  0.1280230516892399  0.5213896593524899
  0.4843725122523401  0.8074250142357208  0.6016765800670213
  0.5546262318986249  0.1769963995522866  0.8428341719784782
  0.6322626610173253  0.9289542458581079 -0.0034639060599159
  0.9516016264046263  0.7161412665686824  0.5499840680312623
  0.9493592331994126  0.8409725118683339  0.7678948966398913
  0.3943331294418370  0.3193409844003546  0.7488847942236407
  0.3189499770418881  0.0793245021720192  0.1089656846652845
  0.4302748905631221  0.3516040368082429  0.5281949220527122
  0.1629269216192071  0.8907035042568957  0.7300120581684804
 -0.1470551030885103  0.1630703013406530  0.0606732983037816
  0.6522254914090886  0.7174082653301672  0.1516652060462508
  0.7591466992496027  0.7442745708124654  0.4421557232823170
  0.0981486852369424  0.8914552691602198  0.5525449878496687
  0.3153291527626411  0.7414240519032496  0.6436280167426670
  0.5714027523582186  0.9325779924538734  0.7989864770449054
  0.6458933610721967  0.2854419584816789  0.8129168491555198
  0.5124624249124788 -0.1016467967324636  0.2067535128801547
  0.1963564485332012  0.2252120640187131  0.6542730584198223
  0.0179039630432755  0.3495425262237068  0.5238178493744898
  0.5912990046592747  0.6078329535698911  0.6254072863298744
  0.5595852277093483  0.1666468860018724  0.0200531238547640
  0.6496451210988452  0.2347995753504893  0.4602733595868657
  0.8771158565982238  0.0090229389293677  0.6431456720321066
  0.9821065735381843  0.6357034130402409  0.6587939431801501
  0.9943349276679544  0.3488971874900789  0.5764629649422006
  0.7280508693977052  0.8727848854200362  0.7903514853205148
  0.5430763230492490  0.0715172211843562  0.6365104278491390
  0.4752638249958547  0.7270152911361403  0.1064366666261749
  0.4942246417507924  0.8869196346354706  0.4952160304452675
Cartesian
  0.0000000000000000  0.0000000000000000  0.0000000000000000
  0.0000000000000000  0.0000000000000000  0.0000000000000000
  0.0000000000000000  0.0000000000000000  0.0000000000000000
  0.0000000000000000  0.0000000000000000  0.0000000000000000
  0.0000000000000000  0.0000000000000000  0.0000000000000000
  0.0000000000000000  0.0000000000000000  0.0000000000000000
  0.0000000000000000  0.0000000000000000  0.0000000000000000
  0.0000000000000000  0.0000000000000000  0.0000000000000000
  0.0000000000000000  0.0000000000000000  0.0000000000000000
  0.0000000000000000  0.0000000000000000  0.0000000000000000
  0.0000000000000000  0.0000000000000000  0.0000000000000000
  0.0000000000000000  0.0000000000000000  0.0000000000000000
  0.0000000000000000  0.0000000000000000  0.0000000000000000
  0.0000000000000000  0.0000000000000000  0.0000000000000000
  0.0000000000000000  0.0000000000000000  0.0000000000000000
  0.0000000000000000  0.0000000000000000  0.0000000000000000
  0.0000000000000000  0.0000000000000000  0.0000000000000000
  0.0000000000000000  0.0000000000000000  0.0000000000000000
  0.0000000000000000  0.0000000000000000  0.0000000000000000
  0.0000000000000000  0.0000000000000000  0.0000000000000000
  0.0000000000000000  0.0000000000000000  0.0000000000000000
  0.0000000000000000  0.0000000000000000  0.0000000000000000
  0.0000000000000000  0.0000000000000000  0.0000000000000000
  0.0000000000000000  0.0000000000000000  0.0000000000000000
  0.0000000000000000  0.0000000000000000  0.0000000000000000
  0.0000000000000000  0.0000000000000000  0.0000000000000000
  0.0000000000000000  0.0000000000000000  0.0000000000000000
  0.0000000000000000  0.0000000000000000  0.0000000000000000
  0.0000000000000000  0.0000000000000000  0.0000000000000000
  0.0000000000000000  0.0000000000000000  0.0000000000000000
  0.0000000000000000  0.0000000000000000  0.0000000000000000
  0.0000000000000000  0.0000000000000000  0.0000000000000000
  0.0000000000000000  0.0000000000000000  0.0000000000000000
  0.0000000000000000  0.0000000000000000  0.0000000000000000
  0.0000000000000000  0.0000000000000000  0.0000000000000000
  0.0000000000000000  0.0000000000000000  0.0000000000000000
  0.0000000000000000  0.0000000000000000  0.0000000000000000
  0.0000000000000000  0.0000000000000000  0.0000000000000000
  0.0000000000000000  0.0000000000000000  0.0000000000000000
  0.0000000000000000  0.0000000000000000  0.0000000000000000
  0.0000000000000000  0.0000000000000000  0.0000000000000000
  0.0000000000000000  0.0000000000000000  0.0000000000000000
  0.0000000000000000  0.0000000000000000  0.0000000000000000
  0.0000000000000000  0.0000000000000000  0.0000000000000000
  0.0000000000000000  0.0000000000000000  0.0000000000000000
  0.0000000000000000  0.0000000000000000  0.0000000000000000
  0.0000000000000000  0.0000000000000000  0.0000000000000000
  0.0000000000000000  0.0000000000000000  0.0000000000000000
  0.0000000000000000  0.0000000000000000  0.0000000000000000
  0.0000000000000000  0.0000000000000000  0.0000000000000000
  0.0000000000000000  0.0000000000000000  0.0000000000000000
  0.0000000000000000  0.0000000000000000  0.0000000000000000
  0.0000000000000000  0.0000000000000000  0.0000000000000000
  0.0000000000000000  0.0000000000000000  0.0000000000000000
  0.0000000000000000  0.0000000000000000  0.0000000000000000
