Na Al S 
 1.0000000000000000
    12.1828203277415312    0.0000000000000000    0.0000000000000007
    -0.0000000000000005    7.5674693205415418    1.1970639402156102
     0.0000000000000000    0.0113082934473333   13.7304524371335805
 Na  Al  S  
  23   8  24
Direct
  0.8898668345730197  0.0723212087454536  0.9118798374807429
  0.7486919123503709  0.3556109081518483 -0.0148116223011334
  0.8304720269974306  0.5021555184483372  0.7451233514444230
  0.7608575410302639  0.9662636110389106  0.5107916721493773
  0.9199098068729387  0.1115088465863477  0.3430291405686917
  0.1844957002606814  0.4324070001095671  0.4119436395258224
  0.8274872582049998  0.5113573744686662  0.2351068205385639
  0.2480136523687802  0.0027646309323990  0.4836608698089906
  0.4947142079479919  0.3140339252323979  0.7019319036279742
  0.2075461517629410  0.3803430666511674  1.0147400052592892
  0.2416040660892712 -0.0211318482246714  0.9894222451007175
  0.7634113272938805  0.4599035845644840  0.5075905497228144
  0.1491649148155689  0.4595667177181915  0.2185613947823297
  0.0212702634490844  0.9227396805836457  0.1775838259238800
  0.5923700808301767  0.5945065966428563  0.3359915486362199
  0.3418378314082791  0.7158221620172172  0.8071192520082400
  0.0252025549057887  0.9296880284009694  0.6864784284788171
  0.3254272263609662  0.7751812292666735  0.2456913840108518
  0.1222010263224134  0.4336483128796035  0.7720406769302862
  0.4804679125429930  0.3971428543047238  0.1705469637719753
  0.6926304287512174 -0.0031452533810906  0.7506341863440871
  0.6058198407632760  0.5862648475332717  0.8640736741482855
  0.6798309720039633  0.0005179134224438  0.2327913884580540
  0.0029233008471880  0.3282677418512066  0.0651925632572424
 -0.0006804192246968  0.3153890855213308  0.5694734456463143
  0.5207487301913473  0.1501307946514923  0.4221640063235682
  0.5363306336582362  0.8985566014477174  0.5631342475943857
  0.5176039460676687  0.1432225895246133  0.9343672887590204
  0.5101106293499533  0.8356031322854920  0.0557807856988008
  0.9958545172353406  0.6753097118348904  0.4249999324665689
  0.3325436908623943  0.7931353960982440  1.0824778648370461
  0.3573775135984569  0.2331278843904432  0.8702856703491828
  0.1669519134049870  0.2016339070002434  0.1160371649676566
  0.3721087622857810  0.2702836247467695  0.3486907014066400
  0.1042880014196600  0.8050129487554382  0.8617027888285415
 -0.0084644711591517  0.6270343872704959  0.0852492309046129
  0.6453518944312836  0.6809722122897791  0.1382517481623038
  0.8366623691266676  0.7797147532938260  0.3642791230789970
  0.1079627890565442  0.8485854024204527  0.3569406781948944
  0.3644872174060708  0.9919905597297464  0.6144610312963188
  0.5790448925271121  0.9681436119477248  0.8721676814576994
  0.6766201498836589  0.2688379689550844  0.8729431256921837
  0.8693403974123800  0.1798299432839014  0.1484743081004363
  0.1465457504787138  0.1523270657158165  0.6363462899726307
 -0.0263799517473977  0.3684571048894379  0.3960122938238322
  0.6605799765243574  0.6752108909872829  0.6258222027730653
  0.4991719857433099  0.1089706307894084  0.0909096392553574
  0.6780988266907736  0.2677917693625187  0.3634147332159514
  0.8640041713753522  0.1778871122004384  0.6258743559595499
  0.2768624126130686  0.6015314706854212  0.5759884602537960
 -0.0216276905547138  0.3642671345006758  0.9131425381790166
  0.8546172048458024  0.7948547862293559  0.8610609449099671
  0.5251929323774287  0.0708153692283404  0.5910647186609350
  0.3374755731277115  0.7193068072934056  0.0487330691646726
  0.5177841258042079  0.9299348649703174  0.3891391321722028
Cartesian
  0.0000000000000000  0.0000000000000000  0.0000000000000000
  0.0000000000000000  0.0000000000000000  0.0000000000000000
  0.0000000000000000  0.0000000000000000  0.0000000000000000
  0.0000000000000000  0.0000000000000000  0.0000000000000000
  0.0000000000000000  0.0000000000000000  0.0000000000000000
  0.0000000000000000  0.0000000000000000  0.0000000000000000
  0.0000000000000000  0.0000000000000000  0.0000000000000000
  0.0000000000000000  0.0000000000000000  0.0000000000000000
  0.0000000000000000  0.0000000000000000  0.0000000000000000
  0.0000000000000000  0.0000000000000000  0.0000000000000000
  0.0000000000000000  0.0000000000000000  0.0000000000000000
  0.0000000000000000  0.0000000000000000  0.0000000000000000
  0.0000000000000000  0.0000000000000000  0.0000000000000000
  0.0000000000000000  0.0000000000000000  0.0000000000000000
  0.0000000000000000  0.0000000000000000  0.0000000000000000
  0.0000000000000000  0.0000000000000000  0.0000000000000000
  0.0000000000000000  0.0000000000000000  0.0000000000000000
  0.0000000000000000  0.0000000000000000  0.0000000000000000
  0.0000000000000000  0.0000000000000000  0.0000000000000000
  0.0000000000000000  0.0000000000000000  0.0000000000000000
  0.0000000000000000  0.0000000000000000  0.0000000000000000
  0.0000000000000000  0.0000000000000000  0.0000000000000000
  0.0000000000000000  0.0000000000000000  0.0000000000000000
  0.0000000000000000  0.0000000000000000  0.0000000000000000
  0.0000000000000000  0.0000000000000000  0.0000000000000000
  0.0000000000000000  0.0000000000000000  0.0000000000000000
  0.0000000000000000  0.0000000000000000  0.0000000000000000
  0.0000000000000000  0.0000000000000000  0.0000000000000000
  0.0000000000000000  0.0000000000000000  0.0000000000000000
  0.0000000000000000  0.0000000000000000  0.0000000000000000
  0.0000000000000000  0.0000000000000000  0.0000000000000000
  0.0000000000000000  0.0000000000000000  0.0000000000000000
  0.0000000000000000  0.0000000000000000  0.0000000000000000
  0.0000000000000000  0.0000000000000000  0.0000000000000000
  0.0000000000000000  0.0000000000000000  0.0000000000000000
  0.0000000000000000  0.0000000000000000  0.0000000000000000
  0.0000000000000000  0.0000000000000000  0.0000000000000000
  0.0000000000000000  0.0000000000000000  0.0000000000000000
  0.0000000000000000  0.0000000000000000  0.0000000000000000
  0.0000000000000000  0.0000000000000000  0.0000000000000000
  0.0000000000000000  0.0000000000000000  0.0000000000000000
  0.0000000000000000  0.0000000000000000  0.0000000000000000
  0.0000000000000000  0.0000000000000000  0.0000000000000000
  0.0000000000000000  0.0000000000000000  0.0000000000000000
  0.0000000000000000  0.0000000000000000  0.0000000000000000
  0.0000000000000000  0.0000000000000000  0.0000000000000000
  0.0000000000000000  0.0000000000000000  0.0000000000000000
  0.0000000000000000  0.0000000000000000  0.0000000000000000
  0.0000000000000000  0.0000000000000000  0.0000000000000000
  0.0000000000000000  0.0000000000000000  0.0000000000000000
  0.0000000000000000  0.0000000000000000  0.0000000000000000
  0.0000000000000000  0.0000000000000000  0.0000000000000000
  0.0000000000000000  0.0000000000000000  0.0000000000000000
  0.0000000000000000  0.0000000000000000  0.0000000000000000
  0.0000000000000000  0.0000000000000000  0.0000000000000000
