Na12 Sn4 S14
1.0
   7.0232602859770257    0.0000000000000000    1.2562741169842797
  -1.1454020358258057    6.9292307813283420    1.2562741169842797
   0.0000000000000000    0.0000000000000000   15.1542989600000002
Na Sn S
12 4 14
direct
   0.9539876100000000    0.2410972800000000    0.4264431400000000 Na
   0.7589027200000000    0.0460123900000000    0.0735568600000000 Na
   0.0460123900000000    0.7589027200000000    0.5735568599999999 Na
   0.2410972800000000    0.9539876100000000    0.9264431400000001 Na
   0.4993911200000000    0.9585972300000000    0.6364109999999999 Na
   0.0414027700000000    0.5006088800000000    0.8635890000000001 Na
   0.4317151200000000    0.5682848800000000    0.2500000000000000 Na
   0.5682848800000000    0.4317151200000000    0.7500000000000000 Na
   0.5000000000000000    0.5000000000000000    0.0000000000000000 Na
   0.5000000000000000    0.5000000000000000    0.5000000000000000 Na
   0.5006088800000000    0.0414027700000000    0.3635890000000000 Na
   0.9585972300000000    0.4993911200000000    0.1364110000000000 Na
   0.2482381300000000    0.0708805400000000    0.1358678800000000 Sn
   0.9291194600000000    0.7517618700000001    0.3641321200000000 Sn
   0.7517618700000001    0.9291194600000000    0.8641321199999999 Sn
   0.0708805400000000    0.2482381300000000    0.6358678800000001 Sn
   0.7706037800000000    0.3133663400000000    0.6029116500000000 S
   0.2293962200000000    0.6866336600000000    0.3970883500000000 S
   0.8582394800000001    0.7334237400000000    0.9848838500000000 S
   0.2665762600000000    0.1417605200000000    0.5151161500000000 S
   0.1417605200000000    0.2665762600000000    0.0151161500000000 S
   0.7334237400000000    0.8582394800000001    0.4848838500000000 S
   0.7575475800000000    0.4884337800000000    0.3199158100000000 S
   0.5115662200000000    0.2424524200000000    0.1800841900000000 S
   0.2424524200000000    0.5115662200000000    0.6800841900000000 S
   0.4884337800000000    0.7575475800000000    0.8199158100000000 S
   0.9535022200000000    0.0464977800000000    0.2500000000000000 S
   0.0464977800000000    0.9535022200000000    0.7500000000000000 S
   0.3133663400000000    0.7706037800000000    0.1029116500000000 S
   0.6866336600000000    0.2293962200000000    0.8970883500000000 S
