JVASP-12818_Na5InS4 NEB_v2 image 10
  1.0
      6.8330688911791304      0.0000000000000000     -0.1272470229470229
     -0.0000000000000010     17.6718505513838551      0.0000000000000010
     -0.0048172062806638      0.0000000000000000      7.8804846921668430
  Na  In  S
  19  4  16
Direct
  0.3630916571978571  0.3630031043047816  0.8339664835972244
  0.3329518617045146  0.0130881155502131  0.3361591220186854
  0.3611949495826414  0.2419797966020056  0.3459783735354252
  0.6558656382596899  0.4889274665742915  0.6680460190607508
  0.9362349531275501  0.1430804737775286  0.5345090020175063
  0.0057281717187529  0.3660823309589546  0.4925965048086462
  0.6608235846821883  0.1240400623600574  0.1567043155902478
  0.9971543915589491  0.0036750944106713  0.9941622854321828
  0.9746041023623723  0.2449747420691305  0.9762583202603468
  0.6545129829019144  0.7611851456142115  0.6646001544981917
  0.3419154114149985  0.5085831917088601  0.3398089237480155
  0.3461526477589177  0.7391535485176993  0.3354926407270135
  0.6545667134930960  0.9896403719237908  0.6651814580864351
  0.9717050717984632  0.6236042533629176  0.5308246242652640
  0.0294594424870749  0.8761676892822399  0.4724864317781310
  0.6711917185082116  0.6229930349481040  0.1581453163570322
  0.3322803911678138  0.8759248578973874  0.8436588699431979
  0.0230637515438422  0.4934493724981094  0.0008414349015241
  0.9999289408534210  0.7497520174650114  0.0011775904181474
  0.6578929823154845  0.3773937983180938  0.1738582845223689
  0.3543031336062921  0.1285015292199609  0.8154043107891840
  0.6462765404760463  0.8759755498764017  0.1804651766949921
  0.3538418239740455  0.6247637066588384  0.8220478841973660
  0.7720485750286926  0.3766115278047742  0.8773177928711721
  0.2410356204919779  0.1279164467633108  0.1170400880771062
  0.2307200015651952  0.0079608021436032  0.6719339164542257
  0.7735255456873151  0.2572052854393353  0.3127886623298278
  0.7750243796117865  0.4933466577494125  0.3359436805791426
  0.2144759241183960  0.2417760957087628  0.6666244636150336
  0.7202582830065986  0.1238105025500729  0.8218847172422999
  0.2864771203109845  0.3754150325998178  0.1774902284329073
  0.7613556013484201  0.8750681694444379  0.8810789110557083
  0.2413626201199841  0.6245206425965637  0.1217027223260581
  0.2373401829293580  0.5054040204000140  0.6754836071212991
  0.7683551251212994  0.7574665625572324  0.3298487613742844
  0.7655842785619084  0.9934439209628695  0.3312841009983316
  0.2314606015900200  0.7427863903532207  0.6708868528333110
  0.7241050258556517  0.6258518861805509  0.8185288742918833
  0.2757095784414808  0.8753951832716297  0.1828356064429578
