Na8 Si8 S20                             
   1.0000000000000000     
     9.0945140808523313   -0.0133814311874428    0.0000000000000006
    -0.0079367059452562    9.0945204622465177    0.0000000000000006
     0.0000000000000000    0.0000000000000000   10.5327467313397243
   Na   Si   S 
     8     8    20
Direct
  0.9039242096209321  0.4193919054456785  0.2500000000000000
  0.8489398545979512  0.8489398545979512  0.0000000000000000
  0.8489398545979512  0.8489398545979512  0.5000000000000000
  0.1510601454020488  0.1510601454020488  0.0000000000000000
  0.5806080945543215  0.0960757903790679  0.2500000000000000
  0.4193919054456785  0.9039242096209321  0.7500000000000000
  0.0960757903790679  0.5806080945543215  0.7500000000000000
  0.1510601454020488  0.1510601454020488  0.5000000000000000
  0.6886067923094146  0.5812296867931011  0.7500000000000000
  0.4187703132068989  0.3113932076905854  0.7500000000000000
  0.5812296867931011  0.6886067923094146  0.2500000000000000
  0.2532926461461358  0.7467073538538642  0.0851561506854992
  0.7467073538538642  0.2532926461461358  0.5851561506854992
  0.7467073538538642  0.2532926461461358  0.9148438493145008
  0.3113932076905854  0.4187703132068989  0.2500000000000000
  0.2532926461461358  0.7467073538538642  0.4148438493145008
  0.4876636539302908  0.7912041238159020  0.0828919144057494
  0.7912041238159020  0.4876636539302908  0.9171080855942506
  0.2087958761840980  0.5123363460697092  0.4171080855942506
  0.8451392768132280  0.1548607231867720  0.7500000000000000
  0.1603801986438782  0.8396198013561218  0.5759155963111411
  0.8396198013561218  0.1603801986438782  0.0759155963111411
  0.8396198013561218  0.1603801986438782  0.4240844036888589
  0.1603801986438782  0.8396198013561218  0.9240844036888589
  0.8043720754498835  0.7277062386866575  0.2500000000000000
  0.1956279245501165  0.2722937613133425  0.7500000000000000
  0.7277062386866575  0.8043720754498835  0.7500000000000000
  0.2722937613133425  0.1956279245501165  0.2500000000000000
  0.5123363460697092  0.2087958761840980  0.5828919144057494
  0.2087958761840980  0.5123363460697092  0.0828919144057494
  0.7912041238159020  0.4876636539302908  0.5828919144057494
  0.5123363460697092  0.2087958761840980  0.9171080855942506
  0.4876636539302908  0.7912041238159020  0.4171080855942506
  0.4552552092656654  0.5447447907343346  0.7471517401144055
  0.5447447907343346  0.4552552092656654  0.2500000000000000
  0.1548607231867720  0.8451392768132280  0.2500000000000000

  0.00000000E+00  0.00000000E+00  0.00000000E+00
  0.00000000E+00  0.00000000E+00  0.00000000E+00
  0.00000000E+00  0.00000000E+00  0.00000000E+00
  0.00000000E+00  0.00000000E+00  0.00000000E+00
  0.00000000E+00  0.00000000E+00  0.00000000E+00
  0.00000000E+00  0.00000000E+00  0.00000000E+00
  0.00000000E+00  0.00000000E+00  0.00000000E+00
  0.00000000E+00  0.00000000E+00  0.00000000E+00
  0.00000000E+00  0.00000000E+00  0.00000000E+00
  0.00000000E+00  0.00000000E+00  0.00000000E+00
  0.00000000E+00  0.00000000E+00  0.00000000E+00
  0.00000000E+00  0.00000000E+00  0.00000000E+00
  0.00000000E+00  0.00000000E+00  0.00000000E+00
  0.00000000E+00  0.00000000E+00  0.00000000E+00
  0.00000000E+00  0.00000000E+00  0.00000000E+00
  0.00000000E+00  0.00000000E+00  0.00000000E+00
  0.00000000E+00  0.00000000E+00  0.00000000E+00
  0.00000000E+00  0.00000000E+00  0.00000000E+00
  0.00000000E+00  0.00000000E+00  0.00000000E+00
  0.00000000E+00  0.00000000E+00  0.00000000E+00
  0.00000000E+00  0.00000000E+00  0.00000000E+00
  0.00000000E+00  0.00000000E+00  0.00000000E+00
  0.00000000E+00  0.00000000E+00  0.00000000E+00
  0.00000000E+00  0.00000000E+00  0.00000000E+00
  0.00000000E+00  0.00000000E+00  0.00000000E+00
  0.00000000E+00  0.00000000E+00  0.00000000E+00
  0.00000000E+00  0.00000000E+00  0.00000000E+00
  0.00000000E+00  0.00000000E+00  0.00000000E+00
  0.00000000E+00  0.00000000E+00  0.00000000E+00
  0.00000000E+00  0.00000000E+00  0.00000000E+00
  0.00000000E+00  0.00000000E+00  0.00000000E+00
  0.00000000E+00  0.00000000E+00  0.00000000E+00
  0.00000000E+00  0.00000000E+00  0.00000000E+00
  0.00000000E+00  0.00000000E+00  0.00000000E+00
  0.00000000E+00  0.00000000E+00  0.00000000E+00
  0.00000000E+00  0.00000000E+00  0.00000000E+00
