Na8 Si8 S20
1.0
   8.9953699100000009    0.0000000000000000    0.0000000000000006
   0.0053853670030826    8.9953682979384268    0.0000000000000006
   0.0000000000000000    0.0000000000000000   10.4115443899999995
Na Si S
8 8 20
direct
   0.9037122400000001    0.4195793500000000    0.2500000000000000 Na
   0.8483748000000000    0.8483748000000000    0.0000000000000000 Na
   0.8483748000000000    0.8483748000000000    0.5000000000000000 Na
   0.1516252000000000    0.1516252000000000    0.0000000000000000 Na
   0.5804206500000000    0.0962877600000000    0.2500000000000000 Na
   0.4195793500000000    0.9037122400000001    0.7500000000000000 Na
   0.0962877600000000    0.5804206500000000    0.7500000000000000 Na
   0.1516252000000000    0.1516252000000000    0.5000000000000000 Na
   0.6887146800000000    0.5824416500000000    0.7500000000000000 Si
   0.4175583500000000    0.3112853200000000    0.7500000000000000 Si
   0.5824416500000000    0.6887146800000000    0.2500000000000000 Si
   0.2526117500000000    0.7473882500000000    0.0840181300000000 Si
   0.7473882500000000    0.2526117500000000    0.5840181300000000 Si
   0.7473882500000000    0.2526117500000000    0.9159818700000000 Si
   0.3112853200000000    0.4175583500000000    0.2500000000000000 Si
   0.2526117500000000    0.7473882500000000    0.4159818700000000 Si
   0.4881280100000000    0.7914906000000000    0.0817723800000000 S
   0.7914906000000000    0.4881280100000000    0.9182276200000000 S
   0.2085094000000000    0.5118719900000001    0.4182276200000000 S
   0.8456316800000000    0.1543683200000000    0.7500000000000000 S
   0.1590836600000000    0.8409163400000000    0.5773223100000000 S
   0.8409163400000000    0.1590836600000000    0.0773223100000000 S
   0.8409163400000000    0.1590836600000000    0.4226776900000000 S
   0.1590836600000000    0.8409163400000000    0.9226776900000000 S
   0.8062711800000000    0.7284193600000000    0.2500000000000000 S
   0.1937288200000000    0.2715806400000000    0.7500000000000000 S
   0.7284193600000000    0.8062711800000000    0.7500000000000000 S
   0.2715806400000000    0.1937288200000000    0.2500000000000000 S
   0.5118719900000001    0.2085094000000000    0.5817723800000000 S
   0.2085094000000000    0.5118719900000001    0.0817723800000000 S
   0.7914906000000000    0.4881280100000000    0.5817723800000000 S
   0.5118719900000001    0.2085094000000000    0.9182276200000000 S
   0.4881280100000000    0.7914906000000000    0.4182276200000000 S
   0.4543850800000000    0.5456149200000000    0.7500000000000000 S
   0.5456149200000000    0.4543850800000000    0.2500000000000000 S
   0.1543683200000000    0.8456316800000000    0.2500000000000000 S
