Na8 Si8 S20                             
   1.0000000000000000     
     9.0945140808523313   -0.0133814311874428    0.0000000000000006
    -0.0079367059452562    9.0945204622465177    0.0000000000000006
     0.0000000000000000    0.0000000000000000   10.5327467313397243
   Na   Si   S 
     8     8    20
Direct
  0.9039242096209349  0.4193919054456786  0.2500000000000000
  0.8489398545979486  0.8489398545979486 -0.0000000000000000
  0.8489398545979486  0.8489398545979486  0.5000000000000000
  0.1510601454020514  0.1510601454020514 -0.0000000000000000
  0.5806080945543216  0.0960757903790653  0.2500000000000000
  0.4193919054456786  0.9039242096209349  0.7500000000000000
  0.0960757903790653  0.5806080945543216  0.7500000000000000
  0.1510601454020514  0.1510601454020514  0.5000000000000000
  0.6886067923094165  0.5812296867931007  0.7500000000000000
  0.4187703132068995  0.3113932076905836  0.7500000000000000
  0.5812296867931007  0.6886067923094165  0.2500000000000000
  0.2532926461461383  0.7467073538538618  0.0851561506855021
  0.7467073538538618  0.2532926461461383  0.5851561506855022
  0.7467073538538618  0.2532926461461383  0.9148438493144978
  0.3113932076905836  0.4187703132068995  0.2500000000000000
  0.2532926461461383  0.7467073538538618  0.4148438493144979
  0.4876636539302910  0.7912041238159019  0.0828919144057479
  0.7912041238159019  0.4876636539302910  0.9171080855942521
  0.2087958761840981  0.5123363460697088  0.4171080855942521
  0.8451392768132259  0.1548607231867740  0.7500000000000000
  0.1603801986438803  0.8396198013561200  0.5759155963111444
  0.8396198013561200  0.1603801986438803  0.0759155963111444
  0.8396198013561200  0.1603801986438803  0.4240844036888555
  0.1603801986438803  0.8396198013561200  0.9240844036888556
  0.8043720754498823  0.7277062386866590  0.2500000000000000
  0.1956279245501176  0.2722937613133410  0.7500000000000000
  0.7277062386866590  0.8043720754498823  0.7500000000000000
  0.2722937613133410  0.1956279245501176  0.2500000000000000
  0.5123363460697088  0.2087958761840981  0.5828919144057479
  0.2087958761840981  0.5123363460697088  0.0828919144057479
  0.7912041238159019  0.4876636539302910  0.5828919144057479
  0.5123363460697088  0.2087958761840981  0.9171080855942521
  0.4876636539302910  0.7912041238159019  0.4171080855942521
  0.4552552092656634  0.5447447907343365  0.7500000000000000
  0.5447447907343365  0.4552552092656634  0.2500000000000000
  0.1548607231867740  0.8451392768132259  0.2500000000000000

  0.00000000E+00  0.00000000E+00  0.00000000E+00
  0.00000000E+00  0.00000000E+00  0.00000000E+00
  0.00000000E+00  0.00000000E+00  0.00000000E+00
  0.00000000E+00  0.00000000E+00  0.00000000E+00
  0.00000000E+00  0.00000000E+00  0.00000000E+00
  0.00000000E+00  0.00000000E+00  0.00000000E+00
  0.00000000E+00  0.00000000E+00  0.00000000E+00
  0.00000000E+00  0.00000000E+00  0.00000000E+00
  0.00000000E+00  0.00000000E+00  0.00000000E+00
  0.00000000E+00  0.00000000E+00  0.00000000E+00
  0.00000000E+00  0.00000000E+00  0.00000000E+00
  0.00000000E+00  0.00000000E+00  0.00000000E+00
  0.00000000E+00  0.00000000E+00  0.00000000E+00
  0.00000000E+00  0.00000000E+00  0.00000000E+00
  0.00000000E+00  0.00000000E+00  0.00000000E+00
  0.00000000E+00  0.00000000E+00  0.00000000E+00
  0.00000000E+00  0.00000000E+00  0.00000000E+00
  0.00000000E+00  0.00000000E+00  0.00000000E+00
  0.00000000E+00  0.00000000E+00  0.00000000E+00
  0.00000000E+00  0.00000000E+00  0.00000000E+00
  0.00000000E+00  0.00000000E+00  0.00000000E+00
  0.00000000E+00  0.00000000E+00  0.00000000E+00
  0.00000000E+00  0.00000000E+00  0.00000000E+00
  0.00000000E+00  0.00000000E+00  0.00000000E+00
  0.00000000E+00  0.00000000E+00  0.00000000E+00
  0.00000000E+00  0.00000000E+00  0.00000000E+00
  0.00000000E+00  0.00000000E+00  0.00000000E+00
  0.00000000E+00  0.00000000E+00  0.00000000E+00
  0.00000000E+00  0.00000000E+00  0.00000000E+00
  0.00000000E+00  0.00000000E+00  0.00000000E+00
  0.00000000E+00  0.00000000E+00  0.00000000E+00
  0.00000000E+00  0.00000000E+00  0.00000000E+00
  0.00000000E+00  0.00000000E+00  0.00000000E+00
  0.00000000E+00  0.00000000E+00  0.00000000E+00
  0.00000000E+00  0.00000000E+00  0.00000000E+00
  0.00000000E+00  0.00000000E+00  0.00000000E+00
