pymatgen with grid density = 428 / number of atoms
0
Gamma
3 6 2
