Na1 Si1 S2                              
   1.0000000000000000     
     1.7596299842366068    1.0159228450152156    6.7706210220281067
    -1.7596299842366068    1.0159228450152156    6.7706210220281067
    -0.0000000000000000   -2.0318456901298565    6.7706210220280365
   Na   Si   S 
     1     1     2
Direct
  0.1651904217304718  0.1651904217304718  0.1651896044913883
  0.9981667261004006  0.9981667261004006  0.9981618197044710
  0.5982394839766059  0.5982394839766059  0.5982365617733691
  0.3969301328823923  0.3969301328823923  0.3969281577190291

  0.00000000E+00  0.00000000E+00  0.00000000E+00
  0.00000000E+00  0.00000000E+00  0.00000000E+00
  0.00000000E+00  0.00000000E+00  0.00000000E+00
  0.00000000E+00  0.00000000E+00  0.00000000E+00
