Na1 Si1 S2
1.0
   1.7714618101902275    1.0227539529139684    6.7394117496607038
  -1.7714618101902275    1.0227539529139684    6.7394117496607038
  -0.0000000000000000   -2.0455079059275629    6.7394117496605634
Na Si S
1 1 2
direct
   0.1651845735799203    0.1651845735799203    0.1651837563408368 Na
   0.9981458279428922    0.9981458279428921    0.9981409215469624 Si
   0.5972526298079355    0.5972526298079355    0.5972497076046986 S
   0.3994207027490247    0.3994207027490247    0.3994187275855894 S
