Na1 Si1 S2                              
   1.0000000000000000     
     1.7596299842366068    1.0159228450152156    6.7706210220281067
    -1.7596299842366068    1.0159228450152156    6.7706210220281067
    -0.0000000000000000   -2.0318456901298565    6.7706210220280365
   Na   Si   S 
     1     1     2
Direct
  0.1651904217304735  0.1651904217304735  0.1651896044913900
  0.9981667261004002  0.9981667261004002  0.9981618197044707
  0.5982394839766026  0.5982394839766026  0.5982365617733660
  0.3984071022722962  0.3984071022722962  0.3984051271088606

  0.00000000E+00  0.00000000E+00  0.00000000E+00
  0.00000000E+00  0.00000000E+00  0.00000000E+00
  0.00000000E+00  0.00000000E+00  0.00000000E+00
  0.00000000E+00  0.00000000E+00  0.00000000E+00
