ISTART = 0
ICHARG = 2
######################
PREC   = Accurate
#ISIF   = 3
IBRION = -1
EDIFF  = 0.000000001
EDIFFG = -0.0005
NSW    = 0
NELM   = 100 # OFTEN MANY STEPS ARE REQUIRED
ENCUT  = 520
#######################
ISMEAR = -5 #gAUSSIAN SMEARING
SIGMA  = 0.05 # TINY SMEARING WIDTH TO SAFELY BREAK SYM 
ISPIN  = 2  #ALLOW FOR SPIN POLARIZATION
#######################
ISYM   = 0    #SYMMETRY
LWAVE  = False
LCHARG = False
#MAGMOM = 12*0.6
LASPH  = True
LORBIT = 11
ADDGRID = TRUE
#LREAL  = Auto
