pymatgen with grid density = 694 / number of atoms
0
Gamma
3 3 3
