generated by phonopy
   1.0
    13.1382268617212130    0.0000000000000000    0.0000000000000008
     0.0000000000000020   13.1382268617212130    0.0000000000000008
     0.0000000000000000    0.0000000000000000   13.1382268617212130
Na S
  64   32
Direct
  0.1257611377170793  0.1250000000000000  0.1250000000000000
  0.6250000000000000  0.1250000000000000  0.1250000000000000
  0.1250000000000000  0.6250000000000000  0.1250000000000000
  0.6250000000000000  0.6250000000000000  0.1250000000000000
  0.1250000000000000  0.1250000000000000  0.6250000000000000
  0.6250000000000000  0.1250000000000000  0.6249999999999999
  0.1250000000000000  0.6250000000000000  0.6249999999999999
  0.6250000000000000  0.6250000000000000  0.6249999999999999
  0.1250000000000000  0.3749999999999999  0.1250000000000000
  0.6249999999999999  0.3749999999999999  0.1250000000000000
  0.1250000000000000  0.8750000000000000  0.1250000000000000
  0.6250000000000000  0.8750000000000000  0.1250000000000000
  0.1250000000000000  0.3749999999999999  0.6250000000000000
  0.6249999999999999  0.3749999999999999  0.6249999999999999
  0.1250000000000000  0.8750000000000000  0.6249999999999999
  0.6250000000000000  0.8750000000000000  0.6250000000000000
  0.1250000000000000  0.3749999999999999  0.3750000000000000
  0.6249999999999999  0.3749999999999999  0.3749999999999999
  0.1250000000000000  0.8750000000000000  0.3749999999999999
  0.6250000000000000  0.8750000000000000  0.3750000000000000
  0.1250000000000000  0.3749999999999999  0.8750000000000000
  0.6249999999999999  0.3749999999999999  0.8749999999999999
  0.1250000000000000  0.8750000000000000  0.8749999999999999
  0.6250000000000000  0.8750000000000000  0.8749999999999999
  0.1250000000000000  0.1250000000000000  0.3749999999999999
  0.6250000000000000  0.1250000000000000  0.3750000000000000
  0.1250000000000000  0.6250000000000000  0.3750000000000000
  0.6250000000000000  0.6250000000000000  0.3749999999999999
  0.1250000000000000  0.1250000000000000  0.8750000000000000
  0.6250000000000000  0.1250000000000000  0.8750000000000000
  0.1250000000000000  0.6250000000000000  0.8750000000000000
  0.6250000000000000  0.6250000000000000  0.8749999999999999
  0.3749999999999999  0.1250000000000000  0.3750000000000000
  0.8750000000000000  0.1250000000000000  0.3749999999999999
  0.3749999999999999  0.6250000000000000  0.3749999999999999
  0.8750000000000000  0.6250000000000000  0.3750000000000000
  0.3749999999999999  0.1250000000000000  0.8750000000000000
  0.8750000000000000  0.1250000000000000  0.8749999999999999
  0.3749999999999999  0.6250000000000000  0.8749999999999999
  0.8750000000000000  0.6250000000000000  0.8749999999999999
  0.3749999999999999  0.3749999999999999  0.3750000000000000
  0.8749999999999999  0.3749999999999999  0.3749999999999999
  0.3750000000000000  0.8750000000000000  0.3749999999999999
  0.8750000000000000  0.8750000000000000  0.3750000000000000
  0.3749999999999999  0.3749999999999999  0.8750000000000000
  0.8749999999999999  0.3749999999999999  0.8749999999999999
  0.3750000000000000  0.8750000000000000  0.8749999999999999
  0.8750000000000000  0.8750000000000000  0.8749999999999999
  0.3749999999999999  0.3749999999999999  0.1250000000000000
  0.8749999999999999  0.3749999999999999  0.1250000000000000
  0.3750000000000000  0.8750000000000000  0.1250000000000000
  0.8750000000000000  0.8750000000000000  0.1250000000000000
  0.3749999999999999  0.3749999999999999  0.6249999999999999
  0.8749999999999999  0.3749999999999999  0.6249999999999999
  0.3750000000000000  0.8750000000000000  0.6249999999999999
  0.8750000000000000  0.8750000000000000  0.6250000000000000
  0.3749999999999999  0.1250000000000000  0.1250000000000000
  0.8750000000000000  0.1250000000000000  0.1250000000000000
  0.3749999999999999  0.6250000000000000  0.1250000000000000
  0.8750000000000000  0.6250000000000000  0.1250000000000000
  0.3749999999999999  0.1250000000000000  0.6250000000000000
  0.8750000000000000  0.1250000000000000  0.6249999999999999
  0.3749999999999999  0.6250000000000000  0.6249999999999999
  0.8750000000000000  0.6250000000000000  0.6250000000000000
  0.0000000000000000  0.0000000000000000  0.0000000000000000
  0.4999999999999999  0.0000000000000000  0.0000000000000000
  0.0000000000000000  0.4999999999999999  0.0000000000000000
  0.4999999999999999  0.4999999999999999  0.0000000000000000
  0.0000000000000000  0.0000000000000000  0.4999999999999999
  0.4999999999999999  0.0000000000000000  0.4999999999999999
  0.0000000000000000  0.4999999999999999  0.4999999999999999
  0.4999999999999999  0.4999999999999999  0.5000000000000000
  0.0000000000000000  0.2500000000000000  0.2500000000000000
  0.4999999999999999  0.2500000000000000  0.2500000000000000
  0.0000000000000000  0.7499999999999999  0.2500000000000000
  0.5000000000000000  0.7499999999999999  0.2500000000000000
  0.0000000000000000  0.2500000000000000  0.7499999999999999
  0.4999999999999999  0.2500000000000000  0.7500000000000000
  0.0000000000000000  0.7499999999999999  0.7500000000000000
  0.5000000000000000  0.7499999999999999  0.7500000000000000
  0.2500000000000000  0.0000000000000000  0.2500000000000000
  0.7499999999999999  0.0000000000000000  0.2500000000000000
  0.2500000000000000  0.4999999999999999  0.2500000000000000
  0.7499999999999999  0.4999999999999999  0.2500000000000000
  0.2500000000000000  0.0000000000000000  0.7499999999999999
  0.7499999999999999  0.0000000000000000  0.7500000000000000
  0.2500000000000000  0.4999999999999999  0.7500000000000000
  0.7499999999999999  0.4999999999999999  0.7500000000000000
  0.2500000000000000  0.2500000000000000  0.0000000000000000
  0.7499999999999999  0.2500000000000000  0.0000000000000000
  0.2500000000000000  0.7499999999999999  0.0000000000000000
  0.7499999999999999  0.7499999999999999  0.0000000000000000
  0.2500000000000000  0.2500000000000000  0.4999999999999999
  0.7499999999999999  0.2500000000000000  0.5000000000000000
  0.2500000000000000  0.7499999999999999  0.5000000000000000
  0.7499999999999999  0.7499999999999999  0.4999999999999999
