pymatgen v1.1 with grid density = 1330 / atom
0
Monkhorst
2 2 2
