Na8 Sn2 S8                              
   1.0000000000000000     
     7.9127130121875471   -0.0000000000000000    0.0000000000000005
    -0.0000000000000005    7.9127130121875471    0.0000000000000005
     0.0000000000000000    0.0000000000000000    7.0073363813377885
   Na   Sn   S 
     8     2     8
Direct
  0.1978655304878103  0.4063229507156052  0.0304889996844366
  0.5936770492843948  0.1978655304878103  0.9695110003155634
  0.4063229507156052  0.8021344695121897  0.9695110003155634
  0.8021344695121897  0.5936770492843948  0.0304889996844366
  0.6978655304878103  0.0936770492843948  0.4695110003155634
  0.3021344695121897  0.9063229507156052  0.4695110003155634
  0.9063229507156052  0.6978655304878103  0.5304889996844366
  0.0936770492843948  0.3021344695121897  0.5304889996844366
  0.0000000000000000  0.0000000000000000  0.0000000000000000
  0.5000000000000000  0.5000000000000000  0.5000000000000000
  0.2603109625436417  0.5928965617311022  0.6849479518521560
  0.7396890374563583  0.4071034382688978  0.6892291791784046
  0.0928965617311022  0.7603109625436417  0.1892291791784046
  0.2396890374563583  0.0928965617311022  0.8107708208215954
  0.7603109625436417  0.9071034382688978  0.8107708208215954
  0.9071034382688978  0.2396890374563583  0.1892291791784046
  0.5928965617311022  0.7396890374563583  0.3107708208215954
  0.4071034382688978  0.2603109625436417  0.3107708208215954

  0.00000000E+00  0.00000000E+00  0.00000000E+00
  0.00000000E+00  0.00000000E+00  0.00000000E+00
  0.00000000E+00  0.00000000E+00  0.00000000E+00
  0.00000000E+00  0.00000000E+00  0.00000000E+00
  0.00000000E+00  0.00000000E+00  0.00000000E+00
  0.00000000E+00  0.00000000E+00  0.00000000E+00
  0.00000000E+00  0.00000000E+00  0.00000000E+00
  0.00000000E+00  0.00000000E+00  0.00000000E+00
  0.00000000E+00  0.00000000E+00  0.00000000E+00
  0.00000000E+00  0.00000000E+00  0.00000000E+00
  0.00000000E+00  0.00000000E+00  0.00000000E+00
  0.00000000E+00  0.00000000E+00  0.00000000E+00
  0.00000000E+00  0.00000000E+00  0.00000000E+00
  0.00000000E+00  0.00000000E+00  0.00000000E+00
  0.00000000E+00  0.00000000E+00  0.00000000E+00
  0.00000000E+00  0.00000000E+00  0.00000000E+00
  0.00000000E+00  0.00000000E+00  0.00000000E+00
  0.00000000E+00  0.00000000E+00  0.00000000E+00
