Na8 Sn2 S8                              
   1.0000000000000000     
     7.9127130121875471   -0.0000000000000000    0.0000000000000005
    -0.0000000000000005    7.9127130121875471    0.0000000000000005
     0.0000000000000000    0.0000000000000000    7.0073363813377885
   Na   Sn   S 
     8     2     8
Direct
  0.1978655304878131  0.4063229507156083  0.0304889996844393
  0.5936770492843916  0.1978655304878131  0.9695110003155607
  0.4063229507156083  0.8021344695121868  0.9695110003155607
  0.8021344695121868  0.5936770492843916  0.0304889996844393
  0.6978655304878132  0.0936770492843916  0.4695110003155607
  0.3021344695121869  0.9063229507156084  0.4695110003155607
  0.9063229507156084  0.6978655304878132  0.5304889996844393
  0.0936770492843916  0.3021344695121869  0.5304889996844393
 -0.0000000000000000  0.0000000000000000 -0.0000000000000000
  0.5000000000000000  0.5000000000000000  0.5000000000000000
  0.2603109625436414  0.5928965617311014  0.6892291791784034
  0.7396890374563586  0.4071034382688988  0.6892291791784034
  0.0928965617311013  0.7603109625436414  0.1892291791784034
  0.2396890374563586  0.0928965617311013  0.8107708208215966
  0.7603109625436414  0.9071034382688986  0.8107708208215966
  0.9071034382688986  0.2396890374563586  0.1892291791784034
  0.5928965617311014  0.7396890374563586  0.3107708208215966
  0.4071034382688988  0.2603109625436414  0.3107708208215966

  0.00000000E+00  0.00000000E+00  0.00000000E+00
  0.00000000E+00  0.00000000E+00  0.00000000E+00
  0.00000000E+00  0.00000000E+00  0.00000000E+00
  0.00000000E+00  0.00000000E+00  0.00000000E+00
  0.00000000E+00  0.00000000E+00  0.00000000E+00
  0.00000000E+00  0.00000000E+00  0.00000000E+00
  0.00000000E+00  0.00000000E+00  0.00000000E+00
  0.00000000E+00  0.00000000E+00  0.00000000E+00
  0.00000000E+00  0.00000000E+00  0.00000000E+00
  0.00000000E+00  0.00000000E+00  0.00000000E+00
  0.00000000E+00  0.00000000E+00  0.00000000E+00
  0.00000000E+00  0.00000000E+00  0.00000000E+00
  0.00000000E+00  0.00000000E+00  0.00000000E+00
  0.00000000E+00  0.00000000E+00  0.00000000E+00
  0.00000000E+00  0.00000000E+00  0.00000000E+00
  0.00000000E+00  0.00000000E+00  0.00000000E+00
  0.00000000E+00  0.00000000E+00  0.00000000E+00
  0.00000000E+00  0.00000000E+00  0.00000000E+00
