generated by phonopy
   1.0
     0.0000000000000000   18.2505424570885069   -0.5811705116455020
    12.2581071603753315    0.0000000000000000    0.0000000000000000
     0.0000000000000000   -3.5750236600091352  -17.6718085292938483
Na
 108
Direct
  0.0000000000000000  0.0000000000000000  0.0005546373884918
  0.3333333333333333  0.0000000000000000  0.0000000000000000
  0.6666666666666666  0.0000000000000000  0.0000000000000000
  0.0000000000000000  0.3333333333333333  0.0000000000000000
  0.3333333333333333  0.3333333333333333  0.0000000000000000
  0.6666666666666666  0.3333333333333333  0.0000000000000000
  0.0000000000000000  0.6666666666666666  0.0000000000000000
  0.3333333333333333  0.6666666666666666  0.0000000000000000
  0.6666666666666666  0.6666666666666666  0.0000000000000000
  0.0000000000000000  0.0000000000000000  0.5000000000000000
  0.3333333333333333  0.0000000000000000  0.5000000000000000
  0.6666666666666666  0.0000000000000000  0.5000000000000000
  0.0000000000000000  0.3333333333333333  0.5000000000000000
  0.3333333333333333  0.3333333333333333  0.5000000000000000
  0.6666666666666666  0.3333333333333333  0.5000000000000000
  0.0000000000000000  0.6666666666666666  0.5000000000000000
  0.3333333333333333  0.6666666666666666  0.5000000000000000
  0.6666666666666666  0.6666666666666666  0.5000000000000000
  0.2222350349559077  0.0000000000000000  0.1666777600568725
  0.5555683682892411  0.0000000000000000  0.1666777600568725
  0.8889017016225744  0.0000000000000000  0.1666777600568725
  0.2222350349559077  0.3333333333333333  0.1666777600568725
  0.5555683682892411  0.3333333333333333  0.1666777600568725
  0.8889017016225744  0.3333333333333333  0.1666777600568725
  0.2222350349559077  0.6666666666666666  0.1666777600568725
  0.5555683682892411  0.6666666666666666  0.1666777600568725
  0.8889017016225744  0.6666666666666666  0.1666777600568725
  0.2222350349559077  0.0000000000000000  0.6666777600568725
  0.5555683682892411  0.0000000000000000  0.6666777600568725
  0.8889017016225744  0.0000000000000000  0.6666777600568725
  0.2222350349559077  0.3333333333333333  0.6666777600568725
  0.5555683682892411  0.3333333333333333  0.6666777600568725
  0.8889017016225744  0.3333333333333333  0.6666777600568725
  0.2222350349559077  0.6666666666666666  0.6666777600568725
  0.5555683682892411  0.6666666666666666  0.6666777600568725
  0.8889017016225744  0.6666666666666666  0.6666777600568725
  0.2777649650440923  0.1666666666666667  0.3333222399431276
  0.6110982983774256  0.1666666666666667  0.3333222399431276
  0.9444316317107588  0.1666666666666667  0.3333222399431275
  0.2777649650440923  0.5000000000000000  0.3333222399431276
  0.6110982983774256  0.5000000000000000  0.3333222399431276
  0.9444316317107588  0.5000000000000000  0.3333222399431275
  0.2777649650440923  0.8333333333333331  0.3333222399431276
  0.6110982983774256  0.8333333333333331  0.3333222399431276
  0.9444316317107588  0.8333333333333331  0.3333222399431275
  0.2777649650440923  0.1666666666666667  0.8333222399431276
  0.6110982983774256  0.1666666666666667  0.8333222399431276
  0.9444316317107588  0.1666666666666667  0.8333222399431276
  0.2777649650440923  0.5000000000000000  0.8333222399431276
  0.6110982983774256  0.5000000000000000  0.8333222399431276
  0.9444316317107588  0.5000000000000000  0.8333222399431276
  0.2777649650440923  0.8333333333333331  0.8333222399431276
  0.6110982983774256  0.8333333333333331  0.8333222399431276
  0.9444316317107588  0.8333333333333331  0.8333222399431276
  0.1666666666666667  0.1666666666666667  0.0000000000000000
  0.5000000000000000  0.1666666666666667  0.0000000000000000
  0.8333333333333333  0.1666666666666667  0.0000000000000000
  0.1666666666666667  0.5000000000000000  0.0000000000000000
  0.5000000000000000  0.5000000000000000  0.0000000000000000
  0.8333333333333333  0.5000000000000000  0.0000000000000000
  0.1666666666666667  0.8333333333333331  0.0000000000000000
  0.5000000000000000  0.8333333333333331  0.0000000000000000
  0.8333333333333333  0.8333333333333331  0.0000000000000000
  0.1666666666666667  0.1666666666666667  0.5000000000000000
  0.5000000000000000  0.1666666666666667  0.5000000000000000
  0.8333333333333333  0.1666666666666667  0.5000000000000000
  0.1666666666666667  0.5000000000000000  0.5000000000000000
  0.5000000000000000  0.5000000000000000  0.5000000000000000
  0.8333333333333333  0.5000000000000000  0.5000000000000000
  0.1666666666666667  0.8333333333333331  0.5000000000000000
  0.5000000000000000  0.8333333333333331  0.5000000000000000
  0.8333333333333333  0.8333333333333331  0.5000000000000000
  0.0555683682892410  0.1666666666666667  0.1666777600568725
  0.3889017016225743  0.1666666666666667  0.1666777600568725
  0.7222350349559077  0.1666666666666667  0.1666777600568725
  0.0555683682892410  0.5000000000000000  0.1666777600568725
  0.3889017016225743  0.5000000000000000  0.1666777600568725
  0.7222350349559077  0.5000000000000000  0.1666777600568725
  0.0555683682892410  0.8333333333333331  0.1666777600568725
  0.3889017016225743  0.8333333333333331  0.1666777600568725
  0.7222350349559077  0.8333333333333331  0.1666777600568725
  0.0555683682892410  0.1666666666666667  0.6666777600568725
  0.3889017016225743  0.1666666666666667  0.6666777600568725
  0.7222350349559077  0.1666666666666667  0.6666777600568725
  0.0555683682892410  0.5000000000000000  0.6666777600568725
  0.3889017016225743  0.5000000000000000  0.6666777600568725
  0.7222350349559077  0.5000000000000000  0.6666777600568725
  0.0555683682892410  0.8333333333333331  0.6666777600568725
  0.3889017016225743  0.8333333333333331  0.6666777600568725
  0.7222350349559077  0.8333333333333331  0.6666777600568725
  0.1110982983774256  0.0000000000000000  0.3333222399431276
  0.4444316317107589  0.0000000000000000  0.3333222399431276
  0.7777649650440922  0.0000000000000000  0.3333222399431275
  0.1110982983774256  0.3333333333333333  0.3333222399431276
  0.4444316317107589  0.3333333333333333  0.3333222399431276
  0.7777649650440922  0.3333333333333333  0.3333222399431275
  0.1110982983774256  0.6666666666666666  0.3333222399431276
  0.4444316317107589  0.6666666666666666  0.3333222399431276
  0.7777649650440922  0.6666666666666666  0.3333222399431275
  0.1110982983774256  0.0000000000000000  0.8333222399431276
  0.4444316317107589  0.0000000000000000  0.8333222399431276
  0.7777649650440922  0.0000000000000000  0.8333222399431276
  0.1110982983774256  0.3333333333333333  0.8333222399431276
  0.4444316317107589  0.3333333333333333  0.8333222399431276
  0.7777649650440922  0.3333333333333333  0.8333222399431276
  0.1110982983774256  0.6666666666666666  0.8333222399431276
  0.4444316317107589  0.6666666666666666  0.8333222399431276
  0.7777649650440922  0.6666666666666666  0.8333222399431276
