Na6                                     
   1.0000000000000000     
     0.0000000000000000    6.0835141523628362   -0.1937235038818340
     4.0860357201251105    0.0000000000000000    0.0000000000000000
     0.0000000000000000   -1.7875118300045676   -8.8359042646469241
   Na
     6
Direct
 -0.0000000000000000  0.0000000000000000 -0.0000000000000000
  0.6667051048677232 -0.0000000000000000  0.3333555201137450
  0.8332948951322768  0.5000000000000000  0.6666444798862552
  0.5000000000000000  0.5000000000000000 -0.0000000000000000
  0.1667051048677231  0.5000000000000000  0.3333555201137450
  0.3332948951322769  0.0000000000000000  0.6666444798862552

  0.00000000E+00  0.00000000E+00  0.00000000E+00
  0.00000000E+00  0.00000000E+00  0.00000000E+00
  0.00000000E+00  0.00000000E+00  0.00000000E+00
  0.00000000E+00  0.00000000E+00  0.00000000E+00
  0.00000000E+00  0.00000000E+00  0.00000000E+00
  0.00000000E+00  0.00000000E+00  0.00000000E+00
