Li6 P2 S8                               
   1.00000000000000     
     7.7867110000000004    0.0000000000000000    0.0000000000000000
     0.0000000000000000    6.6170130000000000    0.0000000000000000
     0.0000000000000000    0.0000000000000000    6.2188189999999999
   Li   P    S 
     6     2     8
Direct
  0.7484455827853759  0.0766907561930502  0.1383754480227271
  0.2668626994420418  0.1472147638129606  0.9815615394390258
  0.1882114129970914  0.9215578777934258  0.5739787071507723
  0.4625858616357512  0.6130670499851758  0.2082609282802109
  0.7248539066168966  0.7748606512128169  0.6461207096955645
  0.1088411796303751  0.4200656118379830  0.7660581734168774
  0.0180739276128398  0.7676925045196908  0.9991280060531085
  0.4903656927486211  0.2229152235558282  0.5088690721401128
  0.9943583313148062  0.0369592511784992  0.8088970708742284
  0.9985190924440911  0.8246190682053596  0.3463335205881590
  0.2507165187670857  0.7195397929019730  0.8643869614687204
  0.2355633458437858  0.2959054968050438  0.4223325483373323
  0.5033753350223512  0.2939265575923726  0.8326186445173750
  0.5019956567195294  0.9142395958052768  0.4281213317257321
  0.6916195763833389  0.3766428598827251  0.3703036277205203
  0.8157435141387170  0.5574147015117581  0.9336081636304908
 
  0.13994555E-01 -0.29211753E-02  0.17660801E-01
 -0.11703888E-01 -0.50322192E-02 -0.70188894E-02
  0.82756068E-03  0.51528116E-02 -0.29794262E-02
  0.26852150E-01 -0.29244996E-01 -0.44077060E-02
  0.54107352E-02  0.15884225E-01 -0.19279306E-01
 -0.46613911E-02  0.49130736E-02 -0.15561862E-01
 -0.25604565E-02 -0.49759807E-02  0.32698512E-02
  0.86974366E-02  0.22878923E-02 -0.33083181E-02
 -0.42434440E-02  0.88396550E-02  0.53940803E-02
  0.51952164E-02 -0.67777671E-02  0.38229930E-02
  0.32291713E-03 -0.43141073E-02 -0.34332314E-03
 -0.31437908E-02  0.65004468E-02 -0.56163646E-02
 -0.78476708E-02 -0.27214419E-02  0.57676709E-02
  0.21995388E-02  0.75692113E-02 -0.25587161E-02
 -0.31857177E-02  0.68508537E-03 -0.52032806E-02
 -0.19407238E-02 -0.47255313E-02  0.56792483E-02
 
           1
   1.00000000000000     
  0.38328967E+00 -0.52512109E-02  0.70641830E-18  0.00000000E+00
  0.75024282E+00  0.76249292E-01  0.14121534E+00
  0.26535964E+00  0.14645427E+00  0.98043289E+00
  0.18831769E+00  0.92233660E+00  0.57349961E+00
  0.46603432E+00  0.60864738E+00  0.20755216E+00
  0.72554877E+00  0.77726116E+00  0.64302055E+00
  0.10824255E+00  0.42080810E+00  0.76355579E+00
  0.17745104E-01  0.76694051E+00  0.99965381E+00
  0.49148265E+00  0.22326098E+00  0.50833709E+00
  0.99381337E+00  0.38295149E-01  0.80976445E+00
  0.99918628E+00  0.82359477E+00  0.34694827E+00
  0.25075799E+00  0.71888782E+00  0.86433175E+00
  0.23515961E+00  0.29688788E+00  0.42142942E+00
  0.50236751E+00  0.29351528E+00  0.83354610E+00
  0.50227813E+00  0.91538350E+00  0.42770988E+00
  0.69121045E+00  0.37674639E+00  0.36946693E+00
  0.81549428E+00  0.55670055E+00  0.93452140E+00
  0.17729440E-02 -0.46731350E-03  0.28081439E-02
 -0.14728154E-02 -0.69695685E-03 -0.11929033E-02
  0.23048407E-04  0.72579148E-03 -0.43450548E-03
  0.34269612E-02 -0.43557789E-02 -0.68306918E-03
  0.65690174E-03  0.23978016E-02 -0.30474285E-02
 -0.56581007E-03  0.74416472E-03 -0.24261679E-02
 -0.29889600E-03 -0.75509512E-03  0.47146727E-03
  0.11220889E-02  0.34072389E-03 -0.54237852E-03
 -0.51087895E-03  0.12972760E-02  0.83622819E-03
  0.67625202E-03 -0.99614513E-03  0.69309889E-03
  0.98814070E-05 -0.61190530E-03 -0.86594570E-04
 -0.41941287E-03  0.97102411E-03 -0.88413501E-03
 -0.99867726E-03 -0.38849063E-03  0.93536141E-03
  0.28121430E-03  0.11162416E-02 -0.41861705E-03
 -0.40067823E-03  0.11262339E-03 -0.82549941E-03
 -0.27259714E-03 -0.73915403E-03  0.90645012E-03
  0.00000000E+00  0.00000000E+00  0.00000000E+00
  0.00000000E+00  0.00000000E+00  0.00000000E+00
  0.00000000E+00  0.00000000E+00  0.00000000E+00
  0.00000000E+00  0.00000000E+00  0.00000000E+00
  0.00000000E+00  0.00000000E+00  0.00000000E+00
  0.00000000E+00  0.00000000E+00  0.00000000E+00
  0.00000000E+00  0.00000000E+00  0.00000000E+00
  0.00000000E+00  0.00000000E+00  0.00000000E+00
  0.00000000E+00  0.00000000E+00  0.00000000E+00
  0.00000000E+00  0.00000000E+00  0.00000000E+00
  0.00000000E+00  0.00000000E+00  0.00000000E+00
  0.00000000E+00  0.00000000E+00  0.00000000E+00
  0.00000000E+00  0.00000000E+00  0.00000000E+00
  0.00000000E+00  0.00000000E+00  0.00000000E+00
  0.00000000E+00  0.00000000E+00  0.00000000E+00
  0.00000000E+00  0.00000000E+00  0.00000000E+00
