Li6 P2 S8
1.0
7.786711 0.000000 0.000000
-0.000000 6.617013 0.000000
0.000000 0.000000 6.218819
Li P S
6 2 8
direct
0.000000 0.143926 0.487932 Li
0.243496 0.317075 0.996120 Li
0.256504 0.682925 0.496120 Li
0.500000 0.856074 0.987932 Li
0.743496 0.682925 0.496120 Li
0.756504 0.317075 0.996120 Li
0.000000 0.818695 0.997624 P
0.500000 0.181305 0.497624 P
0.000000 0.112483 0.888174 S
0.000000 0.808428 0.329147 S
0.217651 0.674071 0.888090 S
0.282349 0.325929 0.388090 S
0.500000 0.191572 0.829147 S
0.500000 0.887517 0.388174 S
0.717651 0.325929 0.388090 S
0.782349 0.674071 0.888090 S
