JVASP-12818_Na5InS4 NEB_v2 image 07     
   1.0000000000000000     
     6.8330688911791304    0.0000000000000000   -0.1272470229470229
    -0.0000000000000010   17.6718505513838551    0.0000000000000010
    -0.0048172062806638    0.0000000000000000    7.8804846921668430
   Na   In   S 
    19     4    16
Direct
  0.4433664833816735  0.3344482595998670  0.7906331484503539
  0.3361103442385698  0.0129804054043774  0.3342861102935686
  0.3567318162710649  0.2405943561793435  0.3437226622046836
  0.6481322794943480  0.4868795607885303  0.6745728668537723
  0.9423127266188445  0.1385454028220039  0.5324381312814737
  0.0163450268314662  0.3687787313238360  0.4947757121748779
  0.6675352963581247  0.1265823849781640  0.1545791644290730
  0.9957220240748370  0.0024717460047228  0.9953859585080664
  0.0033294472513674  0.2520197176886114  0.9794334771827025
  0.6533123930608014  0.7615748948620578  0.6630547859135518
  0.3430148938903272  0.5098490231750787  0.3394238584435598
  0.3453356387456594  0.7385367885720200  0.3339496130544077
  0.6535174529808998  0.9890049176716218  0.6634760138108291
  0.9670389167273399  0.6232104651937576  0.5298113612462885
  0.0295752204226574  0.8757806791086153  0.4713847427724929
  0.6747958750334533  0.6213244245097442  0.1555807216707308
  0.3317185415403259  0.8756598747321291  0.8434270047002812
  0.0372736602952841  0.4898783866855112  0.9965054957815553
  0.9978197865251417  0.7499230939529227  0.0002116311319185
  0.6566126933537646  0.3767130097358020  0.1761491125937127
  0.3508152140078735  0.1261848147359501  0.8148827768514693
  0.6452426770785777  0.8756438649219263  0.1798554123352716
  0.3506799795265110  0.6260255522337914  0.8196041044744504
  0.7774703859116912  0.3761085646461169  0.8823129661058644
  0.2389186717312697  0.1271928184218609  0.1161985786401658
  0.2284431167559191  0.0065727243281160  0.6696237005208516
  0.7697805269333884  0.2577742431582593  0.3237787400640713
  0.7704880197261517  0.4926573016886948  0.3401826988975785
  0.2176477376990036  0.2405811641440962  0.6656348947111681
  0.7176554262619419  0.1236808287277924  0.8187688877236994
  0.2859243215068261  0.3753029976316498  0.1822404939710083
  0.7598698465255254  0.8750493925234508  0.8804592658718562
  0.2390405329792813  0.6245389572568456  0.1194209894463540
  0.2335368254297947  0.5075021909776964  0.6718001890118117
  0.7668882464121936  0.7570079979668449  0.3283681682448218
  0.7649003767496083  0.9935822564765644  0.3293606432341747
  0.2290755517790757  0.7439677030338601  0.6689631112783161
  0.7203972369602596  0.6260990396257284  0.8163251243950995
  0.2748731481524445  0.8752143308094489  0.1821893397773451

             NaN             NaN             NaN
             NaN             NaN             NaN
             NaN             NaN             NaN
             NaN             NaN             NaN
             NaN             NaN             NaN
             NaN             NaN             NaN
             NaN             NaN             NaN
             NaN             NaN             NaN
             NaN             NaN             NaN
             NaN             NaN             NaN
             NaN             NaN             NaN
             NaN             NaN             NaN
             NaN             NaN             NaN
             NaN             NaN             NaN
             NaN             NaN             NaN
             NaN             NaN             NaN
             NaN             NaN             NaN
             NaN             NaN             NaN
             NaN             NaN             NaN
             NaN             NaN             NaN
             NaN             NaN             NaN
             NaN             NaN             NaN
             NaN             NaN             NaN
             NaN             NaN             NaN
             NaN             NaN             NaN
             NaN             NaN             NaN
             NaN             NaN             NaN
             NaN             NaN             NaN
             NaN             NaN             NaN
             NaN             NaN             NaN
             NaN             NaN             NaN
             NaN             NaN             NaN
             NaN             NaN             NaN
             NaN             NaN             NaN
             NaN             NaN             NaN
             NaN             NaN             NaN
             NaN             NaN             NaN
             NaN             NaN             NaN
             NaN             NaN             NaN
