JVASP-12818_Na5InS4 NEB_v2 image 07
  1.0
      6.8330688911791304      0.0000000000000000     -0.1272470229470229
     -0.0000000000000010     17.6718505513838551      0.0000000000000010
     -0.0048172062806638      0.0000000000000000      7.8804846921668430
  Na  In  S
  19  4  16
Direct
  0.4433664833816749  0.3344482595998692  0.7906331484503546
  0.3361103442385707  0.0129804054043768  0.3342861102935694
  0.3567318162710656  0.2405943561793446  0.3437226622046805
  0.6481322794943478  0.4868795607885280  0.6745728668537719
  0.9423127266188446  0.1385454028220066  0.5324381312814739
  0.0163450268314663  0.3687787313238328  0.4947757121748778
  0.6675352963581250  0.1265823849781662  0.1545791644290762
  0.9957220240748337  0.0024717460047234  0.9953859585080691
  0.0033294472513682  0.2520197176886120  0.9794334771827048
  0.6533123930608007  0.7615748948620567  0.6630547859135506
  0.3430148938903280  0.5098490231750766  0.3394238584435584
  0.3453356387456619  0.7385367885720164  0.3339496130544103
  0.6535174529809006  0.9890049176716214  0.6634760138108323
  0.9670389167273409  0.6232104651937592  0.5298113612462886
  0.0295752204226572  0.8757806791086145  0.4713847427724953
  0.6747958750334553  0.6213244245097457  0.1555807216707291
  0.3317185415403278  0.8756598747321305  0.8434270047002825
  0.0372736602952827  0.4898783866855094  0.9965054957815528
  0.9978197865251419  0.7499230939529211  0.0002116311319215
  0.6566126933537613  0.3767130097358050  0.1761491125937129
  0.3508152140078759  0.1261848147359527  0.8148827768514673
  0.6452426770785802  0.8756438649219251  0.1798554123352695
  0.3506799795265075  0.6260255522337895  0.8196041044744473
  0.7774703859116897  0.3761085646461160  0.8823129661058674
  0.2389186717312696  0.1271928184218614  0.1161985786401666
  0.2284431167559167  0.0065727243281162  0.6696237005208540
  0.7697805269333906  0.2577742431582571  0.3237787400640746
  0.7704880197261488  0.4926573016886958  0.3401826988975792
  0.2176477376990056  0.2405811641440937  0.6656348947111675
  0.7176554262619426  0.1236808287277942  0.8187688877237022
  0.2859243215068232  0.3753029976316508  0.1822404939710053
  0.7598698465255230  0.8750493925234489  0.8804592658718545
  0.2390405329792840  0.6245389572568441  0.1194209894463525
  0.2335368254297938  0.5075021909776988  0.6718001890118125
  0.7668882464121961  0.7570079979668437  0.3283681682448228
  0.7649003767496058  0.9935822564765658  0.3293606432341737
  0.2290755517790760  0.7439677030338628  0.6689631112783136
  0.7203972369602599  0.6260990396257283  0.8163251243951030
  0.2748731481524449  0.8752143308094468  0.1821893397773468
