Na8 Zn8 S12                             
   1.0000000000000000     
     7.3390909142341041    0.0000000000000000    0.0000000000000005
    -0.0000000000000005    7.3390909142341041    0.0000000000000005
    -0.0000000000000000   -0.0000000000000000   11.4322683120204776
   Na   Zn   S 
     8     8    12
Direct
  0.9621529138170786  0.2519558175429850  0.4068172814817075
  0.0378470861829214  0.7480441824570150  0.9068172814817075
  0.7519558175429850  0.5378470861829214  0.6568172814817075
  0.2480441824570150  0.4621529138170786  0.1568172814817075
  0.7480441824570150  0.0378470861829214  0.0931827185182925
  0.2519558175429850  0.9621529138170786  0.5931827185182925
  0.5378470861829214  0.7519558175429850  0.3431827185182925
  0.4621529138170786  0.2480441824570150  0.8431827185182925
  0.2239810253171584  0.9530596060896173  0.1343143467330208
  0.7760189746828416  0.0469403939103827  0.6343143467330208
  0.4530596060896173  0.2760189746828416  0.3843143467330208
  0.5469403939103827  0.7239810253171584  0.8843143467330208
  0.0469403939103827  0.7760189746828416  0.3656856532669792
  0.9530596060896173  0.2239810253171584  0.8656856532669792
  0.2760189746828416  0.4530596060896173  0.6156856532669792
  0.7239810253171584  0.5469403939103827  0.1156856532669792
  0.5281149407584067  0.2415047248793272  0.5829006241402510
  0.4718850592415933  0.7584952751206728  0.0829006241402510
  0.7415047248793272  0.9718850592415933  0.8329006241402510
  0.2584952751206728  0.0281149407584067  0.3329006241402510
  0.7584952751206728  0.4718850592415933  0.9170993758597490
  0.2415047248793272  0.5281149407584067  0.4170993758597490
  0.9718850592415933  0.7415047248793272  0.1670993758597490
  0.0281149407584067  0.2584952751206728  0.6670993758597490
  0.6815723186375067  0.3184276813624933  0.2473758488533325
  0.3184276813624933  0.6815723186375067  0.7500000000000000
  0.8184276813624933  0.8184276813624933  0.5000000000000000
  0.1815723186375067  0.1815723186375067  0.0000000000000000

  0.00000000E+00  0.00000000E+00  0.00000000E+00
  0.00000000E+00  0.00000000E+00  0.00000000E+00
  0.00000000E+00  0.00000000E+00  0.00000000E+00
  0.00000000E+00  0.00000000E+00  0.00000000E+00
  0.00000000E+00  0.00000000E+00  0.00000000E+00
  0.00000000E+00  0.00000000E+00  0.00000000E+00
  0.00000000E+00  0.00000000E+00  0.00000000E+00
  0.00000000E+00  0.00000000E+00  0.00000000E+00
  0.00000000E+00  0.00000000E+00  0.00000000E+00
  0.00000000E+00  0.00000000E+00  0.00000000E+00
  0.00000000E+00  0.00000000E+00  0.00000000E+00
  0.00000000E+00  0.00000000E+00  0.00000000E+00
  0.00000000E+00  0.00000000E+00  0.00000000E+00
  0.00000000E+00  0.00000000E+00  0.00000000E+00
  0.00000000E+00  0.00000000E+00  0.00000000E+00
  0.00000000E+00  0.00000000E+00  0.00000000E+00
  0.00000000E+00  0.00000000E+00  0.00000000E+00
  0.00000000E+00  0.00000000E+00  0.00000000E+00
  0.00000000E+00  0.00000000E+00  0.00000000E+00
  0.00000000E+00  0.00000000E+00  0.00000000E+00
  0.00000000E+00  0.00000000E+00  0.00000000E+00
  0.00000000E+00  0.00000000E+00  0.00000000E+00
  0.00000000E+00  0.00000000E+00  0.00000000E+00
  0.00000000E+00  0.00000000E+00  0.00000000E+00
  0.00000000E+00  0.00000000E+00  0.00000000E+00
  0.00000000E+00  0.00000000E+00  0.00000000E+00
  0.00000000E+00  0.00000000E+00  0.00000000E+00
  0.00000000E+00  0.00000000E+00  0.00000000E+00
