Na In S 
 1.0000000000000000
     6.8330688911791304    0.0000000000000000   -0.1272470229470229
    -0.0000000000000005    8.8359252756919275    0.0000000000000005
    -0.0048172062806638    0.0000000000000000    7.8804846921668430
 Na  In  S  
   9   2   8
Direct
  0.6277168747401340  0.5595490258455047  0.6796656912699168
  0.3598584531944881  0.0230296974904845  0.3160448221273663
  0.3722830654325157  0.4404497566651345  0.3203331215440111
  0.6401438114585347  0.9769686314983304  0.6839572330088346
  0.9435035008693023  0.2508424030512735  0.5119950843451740
  0.0564958962117262  0.7491565218163415  0.4880052151607834
  0.8253274667838837  0.1148231330672853  0.0656552517653708
  0.1746650663909844  0.8851880266220951  0.9343541619744499
  0.0000044271498003  0.5000006725212148 -0.0000017888644273
  0.6720540735781271  0.7445603105911008  0.1929956332000942
  0.3279529319465241  0.2554470432194125  0.8070119989490260
  0.8000271862129431  0.7706142287849942  0.9022796562889147
  0.1999753573557277  0.2293839421577903  0.0977154991009057
  0.2353257950067853  0.0241757806305677  0.6385312232045326
  0.7847566534776339  0.5158229614481793  0.3501002528438663
  0.7646715629121082  0.9758138782159825  0.3614619385278368
  0.2152434023538393  0.4841737835597004  0.6498977915962736
  0.6930438125836597  0.2713443608467975  0.7977106447256346
  0.3069506623412822  0.7286558419678104  0.2022865692314376
Cartesian
  0.0000000000000000  0.0000000000000000  0.0000000000000000
  0.0000000000000000  0.0000000000000000  0.0000000000000000
  0.0000000000000000  0.0000000000000000  0.0000000000000000
  0.0000000000000000  0.0000000000000000  0.0000000000000000
  0.0000000000000000  0.0000000000000000  0.0000000000000000
  0.0000000000000000  0.0000000000000000  0.0000000000000000
  0.0000000000000000  0.0000000000000000  0.0000000000000000
  0.0000000000000000  0.0000000000000000  0.0000000000000000
  0.0000000000000000  0.0000000000000000  0.0000000000000000
  0.0000000000000000  0.0000000000000000  0.0000000000000000
  0.0000000000000000  0.0000000000000000  0.0000000000000000
  0.0000000000000000  0.0000000000000000  0.0000000000000000
  0.0000000000000000  0.0000000000000000  0.0000000000000000
  0.0000000000000000  0.0000000000000000  0.0000000000000000
  0.0000000000000000  0.0000000000000000  0.0000000000000000
  0.0000000000000000  0.0000000000000000  0.0000000000000000
  0.0000000000000000  0.0000000000000000  0.0000000000000000
  0.0000000000000000  0.0000000000000000  0.0000000000000000
  0.0000000000000000  0.0000000000000000  0.0000000000000000
