Na In S                                 
   1.0000000000000000     
     6.8330688911791304    0.0000000000000000   -0.1272470229470229
    -0.0000000000000005    8.8359252756919275    0.0000000000000005
    -0.0048172062806638    0.0000000000000000    7.8804846921668430
   Na   In   S 
     9     2     8
Direct
  0.6568337150097392  0.5464007211612270  0.6714649174466558
  0.1854454089331909  0.9910636278050831  0.1666465106065615
  0.3475617596095191  0.4789207121970023  0.3138229974579545
  0.6389776728301939  0.9810311270366441  0.6679077928179922
  0.4821007523824150  0.2101348703381376  0.4860543652895473
  0.0611425285882774  0.7705370695814224  0.4772936291629790
  0.7324973317996850  0.1723106482509280  0.1124459857725455
  0.2555910679084334  0.8114660979339661  0.8893023232873531
  0.9863595684971074  0.4971144061848776  0.9998157660107339
  0.6603298298429010  0.7520785797970859  0.1866954606278526
  0.3263228053430467  0.2579560740347446  0.8371439435622889
  0.7791376954130484  0.7631334885268117  0.8911196650029041
  0.2100885321428763  0.2556995728719613  0.1014910008023620
  0.2191544769720792  0.0090979226744423  0.6761324221942644
  0.7738927824888506  0.5172067240613885  0.3326426433831884
  0.7774186230847633  0.9798281995444427  0.3462478959950630
  0.2131416607884304  0.4900228548094674  0.6600875968086086
  0.7104454316801991  0.2634195668679311  0.8211962834671951
  0.2940713720295633  0.7422305311439530  0.1905523871342538

             NaN             NaN             NaN
             NaN             NaN             NaN
             NaN             NaN             NaN
             NaN             NaN             NaN
             NaN             NaN             NaN
             NaN             NaN             NaN
             NaN             NaN             NaN
             NaN             NaN             NaN
             NaN             NaN             NaN
             NaN             NaN             NaN
             NaN             NaN             NaN
             NaN             NaN             NaN
             NaN             NaN             NaN
             NaN             NaN             NaN
             NaN             NaN             NaN
             NaN             NaN             NaN
             NaN             NaN             NaN
             NaN             NaN             NaN
             NaN             NaN             NaN
