Na5InS4 bottleneck NEB image 05         
   1.0000000000000000     
     6.8330688911791304    0.0000000000000000   -0.1272470229470229
    -0.0000000000000005    8.8359252756919275    0.0000000000000005
    -0.0048172062806638    0.0000000000000000    7.8804846921668430
   Na   In   S 
     9     2     8
Direct
  0.6526888985877335  0.5407141323990103  0.6682638147671298
  0.3503719515682562  0.2519113101315469  0.3241569806592821
  0.5047182746176588  0.2122849664291522  0.4866566615566441
  0.8201026317048772  0.1027144263838338  0.5944694878999286
  0.0052050737546949  0.0202987162928423  0.4899736341060148
  0.8470892890459183  0.9884843581941922  0.3266188274952810
  0.5792928749043895  0.9276108368412181  0.9549069971300952
  0.1007699565041804  0.9374406976223426  0.9785822339123840
  0.9876300062324219  0.4964563145263057  0.0004890483737938
  0.6603781305946583  0.7512248820380165  0.1873006846236009
  0.3346253615890902  0.2559431248151327  0.8164661019009998
  0.7791871231825382  0.7628375421392377  0.8909273568929734
  0.2121100309590318  0.2426470123024274  0.1099291871152701
  0.2307374072094817  0.0187697989289290  0.6664277389365481
  0.7713303187936802  0.5142827330916901  0.3344708932152685
  0.7769482848752531  0.9794549848467469  0.3466494571300132
  0.2184428037356270  0.4845967289179569  0.6562617646656150
  0.7018335867450247  0.2619707405472980  0.8082650302363774
  0.2947483322538744  0.7402750739769743  0.1916608427360558

             NaN             NaN             NaN
             NaN             NaN             NaN
             NaN             NaN             NaN
             NaN             NaN             NaN
             NaN             NaN             NaN
             NaN             NaN             NaN
             NaN             NaN             NaN
             NaN             NaN             NaN
             NaN             NaN             NaN
             NaN             NaN             NaN
             NaN             NaN             NaN
             NaN             NaN             NaN
             NaN             NaN             NaN
             NaN             NaN             NaN
             NaN             NaN             NaN
             NaN             NaN             NaN
             NaN             NaN             NaN
             NaN             NaN             NaN
             NaN             NaN             NaN
