Na5InS4 bottleneck NEB image 05
  1.0
      6.8330688911791304      0.0000000000000000     -0.1272470229470229
     -0.0000000000000005      8.8359252756919275      0.0000000000000005
     -0.0048172062806638      0.0000000000000000      7.8804846921668430
  Na  In  S
  9  2  8
Direct
  0.6526888985877356  0.5407141323990121  0.6682638147671320
  0.3503719515682543  0.2519113101315504  0.3241569806592817
  0.5047182746176619  0.2122849664291522  0.4866566615566470
  0.8201026317048764  0.1027144263838338  0.5944694878999284
  0.0052050737546976  0.0202987162928400  0.4899736341060131
  0.8470892890459156  0.9884843581941936  0.3266188274952819
  0.5792928749043897  0.9276108368412193  0.9549069971300980
  0.1007699565041813  0.9374406976223421  0.9785822339123844
  0.9876300062324206  0.4964563145263081  0.0004890483737970
  0.6603781305946550  0.7512248820380198  0.1873006846236009
  0.3346253615890913  0.2559431248151340  0.8164661019009982
  0.7791871231825417  0.7628375421392394  0.8909273568929758
  0.2121100309590330  0.2426470123024269  0.1099291871152727
  0.2307374072094790  0.0187697989289294  0.6664277389365465
  0.7713303187936835  0.5142827330916924  0.3344708932152650
  0.7769482848752519  0.9794549848467471  0.3466494571300124
  0.2184428037356247  0.4845967289179546  0.6562617646656155
  0.7018335867450265  0.2619707405473006  0.8082650302363789
  0.2947483322538779  0.7402750739769726  0.1916608427360574
