Na In S 
 1.0000000000000000
     6.8330688911791304    0.0000000000000000   -0.1272470229470229
    -0.0000000000000005    8.8359252756919275    0.0000000000000005
    -0.0048172062806638    0.0000000000000000    7.8804846921668430
 Na  In  S  
   9   2   8
Direct
  0.6568337150097413  0.5464007211612284  0.6714649174466562
  0.1854454089331933 -0.0089363721949161  0.1666465106065592
  0.3475617596095160  0.4789207121970011  0.3138229974579528
  0.6389776728301918  0.9810311270366433  0.6679077928179953
  0.4821007523824120  0.2101348703381401  0.4860543652895486
  0.0611425285882791  0.7705370695814239  0.4772936291629797
  0.7324973317996852  0.1723106482509267  0.1124459857725472
  0.2555910679084337  0.8114660979339690  0.8893023232873550
 -0.0136404315028944  0.4971144061848783 -0.0001842339892666
  0.6603298298428985  0.7520785797970878  0.1866954606278510
  0.3263228053430466  0.2579560740347446  0.8371439435622916
  0.7791376954130493  0.7631334885268151  0.8911196650029075
  0.2100885321428753  0.2556995728719589  0.1014910008023595
  0.2191544769720788  0.0090979226744447  0.6761324221942635
  0.7738927824888496  0.5172067240613876  0.3326426433831911
  0.7774186230847601  0.9798281995444439  0.3462478959950637
  0.2131416607884296  0.4900228548094676  0.6600875968086075
  0.7104454316801975  0.2634195668679297  0.8211962834671930
  0.2940713720295628  0.7422305311439527  0.1905523871342515
Cartesian
  0.0000000000000000  0.0000000000000000  0.0000000000000000
  0.0000000000000000  0.0000000000000000  0.0000000000000000
  0.0000000000000000  0.0000000000000000  0.0000000000000000
  0.0000000000000000  0.0000000000000000  0.0000000000000000
  0.0000000000000000  0.0000000000000000  0.0000000000000000
  0.0000000000000000  0.0000000000000000  0.0000000000000000
  0.0000000000000000  0.0000000000000000  0.0000000000000000
  0.0000000000000000  0.0000000000000000  0.0000000000000000
  0.0000000000000000  0.0000000000000000  0.0000000000000000
  0.0000000000000000  0.0000000000000000  0.0000000000000000
  0.0000000000000000  0.0000000000000000  0.0000000000000000
  0.0000000000000000  0.0000000000000000  0.0000000000000000
  0.0000000000000000  0.0000000000000000  0.0000000000000000
  0.0000000000000000  0.0000000000000000  0.0000000000000000
  0.0000000000000000  0.0000000000000000  0.0000000000000000
  0.0000000000000000  0.0000000000000000  0.0000000000000000
  0.0000000000000000  0.0000000000000000  0.0000000000000000
  0.0000000000000000  0.0000000000000000  0.0000000000000000
  0.0000000000000000  0.0000000000000000  0.0000000000000000
