JVASP-12818_Na5InS4 NEB_v2 image 02     
   1.0000000000000000     
     6.8330688911791304    0.0000000000000000   -0.1272470229470229
    -0.0000000000000010   17.6718505513838551    0.0000000000000010
    -0.0048172062806638    0.0000000000000000    7.8804846921668430
   Na   In   S 
    19     4    16
Direct
  0.5771578603547027  0.2868568517583512  0.7184109232055746
  0.3413744817953344  0.0128008884946524  0.3311644240850455
  0.3492932607517716  0.2382852888082425  0.3399631433201051
  0.6352433482187791  0.4834663844789233  0.6854509465088086
  0.9524423491043379  0.1309869512294668  0.5289866800547500
  0.0340397853526540  0.3732727319319622  0.4984077244519298
  0.6787214824846828  0.1308195893416837  0.1510372458271263
  0.9933347449346428  0.0004661653281417  0.9974254136345451
  0.0512050220663625  0.2637613437210788  0.9847254053866337
  0.6513114099922745  0.7622244769417961  0.6604791716058145
  0.3448473646825434  0.5119587422854366  0.3387820829361274
  0.3439739570569031  0.7375088553292102  0.3313779002667374
  0.6517686854605742  0.9879458272513375  0.6606336066848257
  0.9592619916088054  0.6225541515784982  0.5281225895479977
  0.0297681836486277  0.8751356621525730  0.4695485944297673
  0.6808028025755277  0.6185434071124831  0.1513063971935580
  0.3307821254945154  0.8752182361233665  0.8430405626287580
  0.0609568415476858  0.4839267436645116  0.9892789305815981
  0.9943045293113428  0.7502082214327714  0.9986016989882103
  0.6544788784175566  0.3755783620986577  0.1799671593792880
  0.3450020146771848  0.1223236239292689  0.8140135536219404
  0.6435195714161352  0.8750910566644663  0.1788391384023953
  0.3454102387806088  0.6281286281920444  0.8155311382695842
  0.7865067373833483  0.3752702927150224  0.8906382548303569
  0.2353904237967583  0.1259867711861133  0.1147960629119353
  0.2246483087404556  0.0042592613023018  0.6657733406319011
  0.7635388290101801  0.2587225060231262  0.3420955362878217
  0.7629274199167497  0.4915083749208335  0.3472477294283038
  0.2229340936666873  0.2385896115363124  0.6639856132047228
  0.7133173316875130  0.1234647056906653  0.8135758385260417
  0.2850029901665536  0.3751162726847070  0.1901576032011718
  0.7573935884873606  0.8750180976551363  0.8794265238987649
  0.2351703877447804  0.6245694816906422  0.1156181013135082
  0.2271978962638528  0.5109991419405091  0.6656611588293373
  0.7644434485636893  0.7562437236495327  0.3259005130290547
  0.7637605403957650  0.9938128156660611  0.3261548802939132
  0.2251004687608358  0.7459365575016008  0.6657568753533170
  0.7142175888012758  0.6265109620343594  0.8126522079004701
  0.2734790976707160  0.8749129100391428  0.1811122286679918

             NaN             NaN             NaN
             NaN             NaN             NaN
             NaN             NaN             NaN
             NaN             NaN             NaN
             NaN             NaN             NaN
             NaN             NaN             NaN
             NaN             NaN             NaN
             NaN             NaN             NaN
             NaN             NaN             NaN
             NaN             NaN             NaN
             NaN             NaN             NaN
             NaN             NaN             NaN
             NaN             NaN             NaN
             NaN             NaN             NaN
             NaN             NaN             NaN
             NaN             NaN             NaN
             NaN             NaN             NaN
             NaN             NaN             NaN
             NaN             NaN             NaN
             NaN             NaN             NaN
             NaN             NaN             NaN
             NaN             NaN             NaN
             NaN             NaN             NaN
             NaN             NaN             NaN
             NaN             NaN             NaN
             NaN             NaN             NaN
             NaN             NaN             NaN
             NaN             NaN             NaN
             NaN             NaN             NaN
             NaN             NaN             NaN
             NaN             NaN             NaN
             NaN             NaN             NaN
             NaN             NaN             NaN
             NaN             NaN             NaN
             NaN             NaN             NaN
             NaN             NaN             NaN
             NaN             NaN             NaN
             NaN             NaN             NaN
             NaN             NaN             NaN
