JVASP-12818_Na5InS4 NEB_v2 image 02
  1.0
      6.8330688911791304      0.0000000000000000     -0.1272470229470229
     -0.0000000000000010     17.6718505513838551      0.0000000000000010
     -0.0048172062806638      0.0000000000000000      7.8804846921668430
  Na  In  S
  19  4  16
Direct
  0.5771578603547046  0.2868568517583486  0.7184109232055715
  0.3413744817953309  0.0128008884946497  0.3311644240850427
  0.3492932607517726  0.2382852888082429  0.3399631433201059
  0.6352433482187776  0.4834663844789222  0.6854509465088072
  0.9524423491043352  0.1309869512294700  0.5289866800547531
  0.0340397853526554  0.3732727319319630  0.4984077244519304
  0.6787214824846862  0.1308195893416810  0.1510372458271236
  0.9933347449346411  0.0004661653281435  0.9974254136345462
  0.0512050220663614  0.2637613437210811  0.9847254053866347
  0.6513114099922780  0.7622244769417986  0.6604791716058156
  0.3448473646825438  0.5119587422854375  0.3387820829361300
  0.3439739570569023  0.7375088553292117  0.3313779002667383
  0.6517686854605749  0.9879458272513389  0.6606336066848275
  0.9592619916088035  0.6225541515784953  0.5281225895479962
  0.0297681836486278  0.8751356621525721  0.4695485944297692
  0.6808028025755281  0.6185434071124819  0.1513063971935572
  0.3307821254945177  0.8752182361233690  0.8430405626287568
  0.0609568415476836  0.4839267436645095  0.9892789305816005
  0.9943045293113435  0.7502082214327708  0.9986016989882118
  0.6544788784175558  0.3755783620986571  0.1799671593792862
  0.3450020146771821  0.1223236239292723  0.8140135536219393
  0.6435195714161367  0.8750910566644643  0.1788391384023984
  0.3454102387806108  0.6281286281920415  0.8155311382695830
  0.7865067373833516  0.3752702927150190  0.8906382548303595
  0.2353904237967558  0.1259867711861126  0.1147960629119340
  0.2246483087404526  0.0042592613023045  0.6657733406319011
  0.7635388290101831  0.2587225060231269  0.3420955362878192
  0.7629274199167525  0.4915083749208346  0.3472477294283070
  0.2229340936666884  0.2385896115363119  0.6639856132047243
  0.7133173316875160  0.1234647056906629  0.8135758385260391
  0.2850029901665543  0.3751162726847057  0.1901576032011686
  0.7573935884873614  0.8750180976551341  0.8794265238987647
  0.2351703877447837  0.6245694816906447  0.1156181013135099
  0.2271978962638535  0.5109991419405069  0.6656611588293347
  0.7644434485636906  0.7562437236495292  0.3259005130290535
  0.7637605403957680  0.9938128156660598  0.3261548802939106
  0.2251004687608359  0.7459365575015997  0.6657568753533181
  0.7142175888012736  0.6265109620343575  0.8126522079004692
  0.2734790976707184  0.8749129100391418  0.1811122286679952
