user_Na5AlS4_Na5AlS4 NEB image 01
  1.0
     12.1026382039385112     -0.0000000000000000      0.0000000000000007
     -0.0000000000000004      7.0938170788834114      0.0000000000000004
      0.0000000000000000      0.0000000000000000     21.6510149562332330
  Na  Al  S
  39  8  32
Direct
  0.3515019112404864  0.9085801727168402  0.4998741272555039
  0.6484980887595138  0.4085801727168401  0.0001258727444962
  0.1484980887595136  0.0914198272831599  -0.0001258727444962
  0.1484980887595136  0.4085801727168401  0.4998741272555039
  0.3515019112404864  0.5914198272831598  -0.0001258727444962
  0.6484980887595138  0.0914198272831599  0.5001258727444963
  0.8515019112404862  0.5914198272831598  0.5001258727444963
  0.8515019112404862  0.9085801727168402  0.0001258727444962
  0.2870374547962271  0.5536414949352142  0.3657040684505781
  0.7129625452037729  0.0536414949352142  0.1342959315494220
  0.2129625452037729  0.4463585050647857  0.8657040684505780
  0.2129625452037729  0.0536414949352142  0.3657040684505781
  0.2870374547962271  0.9463585050647858  0.8657040684505780
  0.7129625452037729  0.4463585050647857  0.6342959315494220
  0.7870374547962271  0.9463585050647858  0.6342959315494220
  0.7870374547962271  0.5536414949352142  0.1342959315494220
  0.5375953317021523  0.5434440554241081  0.4560750852003188
  0.4436070024467714  0.0651660831361621  0.0658873721995218
  0.9436070024467714  0.4348339168638380  0.9341126278004781
  0.9436070024467714  0.0651660831361621  0.4341126278004782
  0.5563929975532286  0.9348339168638379  0.9341126278004781
  0.0563929975532357  0.9348339168638379  0.5658873721995219
  0.0563929975532357  0.5651660831361621  0.0658873721995218
  0.5862778720194155  0.3808765355907109  0.2506361475666589
  0.4137221279805846  0.8808765355907109  0.2493638524333411
  0.9137221279805845  0.6191234644092891  0.7506361475666591
  0.9137221279805845  0.8808765355907109  0.2506361475666589
  0.5862778720194155  0.1191234644092891  0.7506361475666591
  0.4137221279805846  0.6191234644092891  0.7493638524333409
  0.0862778720194155  0.1191234644092891  0.7493638524333409
  0.0862778720194155  0.3808765355907109  0.2493638524333411
  0.8371953317203252  0.1067392765269321  0.8297249852977530
  0.1628046682796749  0.6067392765269320  0.6702750147022470
  0.6628046682796748  0.8932607234730680  0.3297249852977530
  0.6628046682796748  0.6067392765269320  0.8297249852977530
  0.8371953317203252  0.3932607234730679  0.3297249852977530
  0.1628046682796749  0.8932607234730680  0.1702750147022470
  0.3371953317203251  0.3932607234730679  0.1702750147022470
  0.3371953317203251  0.1067392765269321  0.6702750147022470
  0.0400154321083279  0.8299398367099078  0.8745796436464933
  0.9599845678916722  0.3299398367099079  0.6254203563535067
  0.4599845678916721  0.1700601632900921  0.3745796436464932
  0.4599845678916721  0.3299398367099079  0.8745796436464933
  0.0400154321083279  0.6700601632900922  0.3745796436464932
  0.9599845678916722  0.1700601632900921  0.1254203563535068
  0.5400154321083278  0.6700601632900922  0.1254203563535068
  0.5400154321083278  0.8299398367099078  0.6254203563535067
  0.3702490642195067  0.2047340287233736  0.9573718200420381
  0.6297509357804932  0.7047340287233738  0.5426281799579619
  0.1297509357804933  0.7952659712766262  0.4573718200420383
  0.1297509357804933  0.7047340287233738  0.9573718200420381
  0.3702490642195067  0.2952659712766263  0.4573718200420383
  0.6297509357804932  0.7952659712766262  0.0426281799579617
  0.8702490642195068  0.2952659712766263  0.0426281799579617
  0.8702490642195068  0.2047340287233736  0.5426281799579619
  0.4468896129553678  0.8512421222248461  0.3784775266415307
  0.5531103870446321  0.3512421222248460  0.1215224733584692
  0.0531103870446322  0.1487578777751540  0.8784775266415307
  0.0531103870446322  0.3512421222248460  0.3784775266415307
  0.4468896129553678  0.6487578777751540  0.8784775266415307
  0.5531103870446321  0.1487578777751540  0.6215224733584693
  0.9468896129553679  0.6487578777751539  0.6215224733584693
  0.9468896129553679  0.8512421222248461  0.1215224733584692
  0.1413310907989968  0.2452858313589946  0.6244928313576337
  0.8586689092010031  0.7452858313589946  0.8755071686423663
  0.3586689092010031  0.7547141686410054  0.1244928313576337
  0.3586689092010031  0.7452858313589946  0.6244928313576337
  0.1413310907989968  0.2547141686410054  0.1244928313576337
  0.8586689092010031  0.7547141686410054  0.3755071686423663
  0.6413310907989969  0.2547141686410054  0.3755071686423663
  0.6413310907989969  0.2452858313589946  0.8755071686423663
  0.6300934103021079  0.7610106049221301  0.2125107836611276
  0.3699065896978919  0.2610106049221301  0.2874892163388724
  0.8699065896978921  0.2389893950778699  0.7125107836611275
  0.8699065896978921  0.2610106049221301  0.2125107836611276
  0.6300934103021079  0.7389893950778699  0.7125107836611275
  0.3699065896978919  0.2389893950778699  0.7874892163388725
  0.1300934103021081  0.7389893950778699  0.7874892163388725
  0.1300934103021081  0.7610106049221301  0.2874892163388724
