Na8 Zn8 S12                             
   1.0000000000000000     
     7.3390909142341041    0.0000000000000000    0.0000000000000005
    -0.0000000000000005    7.3390909142341041    0.0000000000000005
    -0.0000000000000000   -0.0000000000000000   11.4322683120204776
   Na   Zn   S 
     8     8    12
Direct
  0.9621529138170817  0.2519558175429845  0.4068172814817058
  0.0378470861829183  0.7480441824570155  0.9068172814817059
  0.7519558175429845  0.5378470861829183  0.6568172814817059
  0.2480441824570155  0.4621529138170817  0.1568172814817058
  0.7480441824570155  0.0378470861829183  0.0931827185182943
  0.2519558175429845  0.9621529138170817  0.5931827185182941
  0.5378470861829183  0.7519558175429845  0.3431827185182942
  0.4621529138170817  0.2480441824570155  0.8431827185182941
  0.2239810253171571  0.9530596060896203  0.1343143467330175
  0.7760189746828430  0.0469403939103799  0.6343143467330172
  0.4530596060896199  0.2760189746828429  0.3843143467330175
  0.5469403939103797  0.7239810253171570  0.8843143467330172
  0.0469403939103799  0.7760189746828430  0.3656856532669825
  0.9530596060896203  0.2239810253171571  0.8656856532669828
  0.2760189746828429  0.4530596060896199  0.6156856532669828
  0.7239810253171570  0.5469403939103797  0.1156856532669826
  0.5281149407584085  0.2415047248793242  0.5829006241402528
  0.4718850592415913  0.7584952751206758  0.0829006241402528
  0.7415047248793242  0.9718850592415915  0.8329006241402528
  0.2584952751206757  0.0281149407584087  0.3329006241402526
  0.7584952751206758  0.4718850592415913  0.9170993758597472
  0.2415047248793242  0.5281149407584085  0.4170993758597474
  0.9718850592415915  0.7415047248793242  0.1670993758597472
  0.0281149407584087  0.2584952751206757  0.6670993758597472
  0.6815723186375099  0.3184276813624901  0.2500000000000000
  0.3184276813624901  0.6815723186375099  0.7500000000000000
  0.8184276813624901  0.8184276813624901  0.5000000000000000
  0.1815723186375100  0.1815723186375100  0.0000000000000000

  0.00000000E+00  0.00000000E+00  0.00000000E+00
  0.00000000E+00  0.00000000E+00  0.00000000E+00
  0.00000000E+00  0.00000000E+00  0.00000000E+00
  0.00000000E+00  0.00000000E+00  0.00000000E+00
  0.00000000E+00  0.00000000E+00  0.00000000E+00
  0.00000000E+00  0.00000000E+00  0.00000000E+00
  0.00000000E+00  0.00000000E+00  0.00000000E+00
  0.00000000E+00  0.00000000E+00  0.00000000E+00
  0.00000000E+00  0.00000000E+00  0.00000000E+00
  0.00000000E+00  0.00000000E+00  0.00000000E+00
  0.00000000E+00  0.00000000E+00  0.00000000E+00
  0.00000000E+00  0.00000000E+00  0.00000000E+00
  0.00000000E+00  0.00000000E+00  0.00000000E+00
  0.00000000E+00  0.00000000E+00  0.00000000E+00
  0.00000000E+00  0.00000000E+00  0.00000000E+00
  0.00000000E+00  0.00000000E+00  0.00000000E+00
  0.00000000E+00  0.00000000E+00  0.00000000E+00
  0.00000000E+00  0.00000000E+00  0.00000000E+00
  0.00000000E+00  0.00000000E+00  0.00000000E+00
  0.00000000E+00  0.00000000E+00  0.00000000E+00
  0.00000000E+00  0.00000000E+00  0.00000000E+00
  0.00000000E+00  0.00000000E+00  0.00000000E+00
  0.00000000E+00  0.00000000E+00  0.00000000E+00
  0.00000000E+00  0.00000000E+00  0.00000000E+00
  0.00000000E+00  0.00000000E+00  0.00000000E+00
  0.00000000E+00  0.00000000E+00  0.00000000E+00
  0.00000000E+00  0.00000000E+00  0.00000000E+00
  0.00000000E+00  0.00000000E+00  0.00000000E+00
