Na8 Zn8 S12
1.0
   7.4573780000000003    0.0000000000000000    0.0000000000000005
  -0.0000000000000005    7.4573780000000003    0.0000000000000005
   0.0000000000000000    0.0000000000000000   11.2732600000000005
Na Zn S
8 8 12
direct
   0.9652340000000000    0.2446590000000000    0.3965990000000000 Na
   0.0347660000000000    0.7553410000000000    0.8965990000000000 Na
   0.7446590000000000    0.5347660000000000    0.6465990000000000 Na
   0.2553410000000000    0.4652340000000000    0.1465990000000000 Na
   0.7553410000000000    0.0347660000000000    0.1034010000000000 Na
   0.2446590000000000    0.9652340000000000    0.6034010000000000 Na
   0.5347660000000000    0.7446590000000000    0.3534010000000000 Na
   0.4652340000000000    0.2553410000000000    0.8534010000000000 Na
   0.2372180000000000    0.9517890000000000    0.1349480000000000 Zn
   0.7627820000000000    0.0482110000000000    0.6349480000000000 Zn
   0.4517890000000000    0.2627820000000000    0.3849480000000000 Zn
   0.5482110000000000    0.7372180000000000    0.8849480000000000 Zn
   0.0482110000000000    0.7627820000000000    0.3650520000000000 Zn
   0.9517890000000000    0.2372180000000000    0.8650520000000000 Zn
   0.2627820000000000    0.4517890000000000    0.6150520000000000 Zn
   0.7372180000000000    0.5482110000000000    0.1150520000000000 Zn
   0.5181480000000001    0.2400530000000000    0.5888730000000000 S
   0.4818520000000000    0.7599470000000000    0.0888730000000000 S
   0.7400530000000000    0.9818519999999999    0.8388730000000000 S
   0.2599470000000000    0.0181480000000000    0.3388730000000000 S
   0.7599470000000000    0.4818520000000000    0.9111270000000000 S
   0.2400530000000000    0.5181480000000001    0.4111270000000000 S
   0.9818519999999999    0.7400530000000000    0.1611270000000000 S
   0.0181480000000000    0.2599470000000000    0.6611270000000000 S
   0.6785330000000001    0.3214670000000000    0.2500000000000000 S
   0.3214670000000000    0.6785330000000001    0.7500000000000000 S
   0.8214669999999999    0.8214669999999999    0.5000000000000000 S
   0.1785330000000000    0.1785330000000000    0.0000000000000000 S
