user_Na5AlS4_Na5AlS4 NEB_v2 image 04    
   1.0000000000000000     
    12.1026382039385112    0.0000000000000000    0.0000000000000007
    -0.0000000000000004    7.0938170788834114    0.0000000000000004
     0.0000000000000000    0.0000000000000000   21.6510149562332330
   Na   Al   S 
    39     8    32
Direct
  0.3495967120131809  0.8973327835179816  0.4995651217407584
  0.6513141879137976  0.4072376710114511  0.0014510969429296
  0.1518169199342196  0.0925481061201552  0.9980389934110008
  0.1559053651839903  0.4092832189368707  0.5019493625776690
  0.3485083091420265  0.5922165809794322  0.9984734172716543
  0.6508326071065511  0.1020761999571747  0.5003238805777812
  0.8466080603738106  0.5925635821970303  0.4981562484552597
  0.8479654633750684  0.9073082450936454  0.0020156110206386
  0.2923574695423810  0.5440751180669636  0.3648962962788929
  0.7119248731192656  0.0523319367155679  0.1390222684568485
  0.2111940542797228  0.4479160242487907  0.8616024511934555
  0.2133521664180051  0.0473987492605801  0.3659463147194657
  0.2877301667477568  0.9473468114099788  0.8611269240077917
  0.7066878856434897  0.4546738973883322  0.6342035678744935
  0.7867070218237515  0.9533549512988913  0.6340705455042155
  0.7886654276413552  0.5523429142757550  0.1383112286691244
  0.5069310572665486  0.5074782882690698  0.4905782621427193
  0.4467688690676113  0.0631934503061942  0.0654422074641161
  0.9463360271832997  0.4369699848027579  0.9346482548140571
  0.9475812072116128  0.0586905779206219  0.4348052231544486
  0.5530948959842874  0.9364217476327710  0.9344547608338090
  0.0529038573208922  0.9427924784973598  0.5652037874725053
  0.0534468183603636  0.5630661776006320  0.0653499141279283
  0.5831495977117882  0.3829037788934642  0.2552426087788220
  0.4161532104982868  0.8785929324398154  0.2489153614512176
  0.9134193468170153  0.6185224119351318  0.7522307577304801
  0.9169099129420033  0.8855567717054527  0.2538520417856063
  0.5833071792559039  0.1184483452386900  0.7511677253814923
  0.4167764290985119  0.6175137281706569  0.7447585235272811
  0.0841785619002451  0.1152168084439182  0.7461885943789923
  0.0860110522155964  0.3828039666271152  0.2476173180969425
  0.8343031448483629  0.1056576960440196  0.8295639476128116
  0.1661623164801753  0.6134543730352533  0.6678315164226021
  0.6603535906708800  0.8714525821114805  0.3376236987881569
  0.6638979812671835  0.6055799662389632  0.8296603765624013
  0.8343888460376974  0.3880879383446185  0.3322185613188253
  0.1655841589451583  0.8947509057977214  0.1702788630021956
  0.3361772851294305  0.3935755902677727  0.1704093620025589
  0.3408529034668959  0.1340829902854352  0.6607692017892575
  0.0397155372534002  0.8324472342794351  0.8739685133473571
  0.9562001236451465  0.3389018872958260  0.6255137736979179
  0.4577521185125804  0.1597864213968165  0.3757514137403675
  0.4581087553377046  0.3323259122738875  0.8728794338712049
  0.0437250817022061  0.6623853666183308  0.3744462563104847
  0.9600155690336365  0.1676098643550006  0.1260456107660559
  0.5414742105396755  0.6673454762493307  0.1268201897737313
  0.5425845441241535  0.8370751837750632  0.6241379848942756
  0.3688566420474473  0.2077714963443782  0.9566063931570810
  0.6404225706143762  0.7276806047744273  0.5419690603668599
  0.1298139129387721  0.7862350960475837  0.4588186638529805
  0.1306004641096692  0.7081021633368678  0.9570540695899581
  0.3613812149579161  0.2721473608384457  0.4579943901312618
  0.6308732146760008  0.7921523899638032  0.0431802449798511
  0.8691221962066891  0.2920094034122442  0.0429834080391913
  0.8700227087956165  0.2149058135318782  0.5411859404377211
  0.4460828230301885  0.8412931585007613  0.3788202136317764
  0.5527406100238466  0.3491419136995191  0.1240629986575499
  0.0513003951423627  0.1506172388813241  0.8760452794282898
  0.0543248061842689  0.3448816913847281  0.3770815401824308
  0.4468426310045857  0.6505876185103148  0.8757401752270937
  0.5558007656104280  0.1550899878663259  0.6212124731229878
  0.9461884380192984  0.6563552459469335  0.6228955559343490
  0.9485838911941258  0.8494361214726354  0.1239429113536943
  0.1358286608881798  0.2490400234563523  0.6253622630211595
  0.8589540681483498  0.7444851482090655  0.8765924765373754
  0.3607397674482513  0.7552902961657111  0.1243689426974228
  0.3625432883121178  0.7529609418915157  0.6224760229952864
  0.1407903227158585  0.2556183812654496  0.1233862967402288
  0.8640898918880566  0.7524070869754738  0.3747474442943641
  0.6372934397081593  0.2493093599367171  0.3777034690114434
  0.6387613392189024  0.2440339758303551  0.8754216402062909
  0.6311753299110876  0.7571936303759870  0.2148849656688867
  0.3688844156956961  0.2511436218664898  0.2870488055227796
  0.8643857880458512  0.2467431592017064  0.7125736649580219
  0.8713220428836550  0.2591901469736584  0.2141222879208229
  0.6317582895913816  0.7469728661121451  0.7129299444132116
  0.3684974365214018  0.2424698744347040  0.7847742293869047
  0.1283051804461905  0.7408446980676189  0.7859306669578956
  0.1355611734452893  0.7542250740208800  0.2873787133923358

             NaN             NaN             NaN
             NaN             NaN             NaN
             NaN             NaN             NaN
             NaN             NaN             NaN
             NaN             NaN             NaN
             NaN             NaN             NaN
             NaN             NaN             NaN
             NaN             NaN             NaN
             NaN             NaN             NaN
             NaN             NaN             NaN
             NaN             NaN             NaN
             NaN             NaN             NaN
             NaN             NaN             NaN
             NaN             NaN             NaN
             NaN             NaN             NaN
             NaN             NaN             NaN
             NaN             NaN             NaN
             NaN             NaN             NaN
             NaN             NaN             NaN
             NaN             NaN             NaN
             NaN             NaN             NaN
             NaN             NaN             NaN
             NaN             NaN             NaN
             NaN             NaN             NaN
             NaN             NaN             NaN
             NaN             NaN             NaN
             NaN             NaN             NaN
             NaN             NaN             NaN
             NaN             NaN             NaN
             NaN             NaN             NaN
             NaN             NaN             NaN
             NaN             NaN             NaN
             NaN             NaN             NaN
             NaN             NaN             NaN
             NaN             NaN             NaN
             NaN             NaN             NaN
             NaN             NaN             NaN
             NaN             NaN             NaN
             NaN             NaN             NaN
             NaN             NaN             NaN
             NaN             NaN             NaN
             NaN             NaN             NaN
             NaN             NaN             NaN
             NaN             NaN             NaN
             NaN             NaN             NaN
             NaN             NaN             NaN
             NaN             NaN             NaN
             NaN             NaN             NaN
             NaN             NaN             NaN
             NaN             NaN             NaN
             NaN             NaN             NaN
             NaN             NaN             NaN
             NaN             NaN             NaN
             NaN             NaN             NaN
             NaN             NaN             NaN
             NaN             NaN             NaN
             NaN             NaN             NaN
             NaN             NaN             NaN
             NaN             NaN             NaN
             NaN             NaN             NaN
             NaN             NaN             NaN
             NaN             NaN             NaN
             NaN             NaN             NaN
             NaN             NaN             NaN
             NaN             NaN             NaN
             NaN             NaN             NaN
             NaN             NaN             NaN
             NaN             NaN             NaN
             NaN             NaN             NaN
             NaN             NaN             NaN
             NaN             NaN             NaN
             NaN             NaN             NaN
             NaN             NaN             NaN
             NaN             NaN             NaN
             NaN             NaN             NaN
             NaN             NaN             NaN
             NaN             NaN             NaN
             NaN             NaN             NaN
             NaN             NaN             NaN
