user_Na5AlS4_Na5AlS4 NEB_v2 image 04
  1.0
     12.1026382039385112      0.0000000000000000      0.0000000000000007
     -0.0000000000000004      7.0938170788834114      0.0000000000000004
      0.0000000000000000      0.0000000000000000     21.6510149562332330
  Na  Al  S
  39  8  32
Direct
  0.3495967120131817  0.8973327835179805  0.4995651217407597
  0.6513141879137955  0.4072376710114526  0.0014510969429296
  0.1518169199342209  0.0925481061201587  0.9980389934109972
  0.1559053651839905  0.4092832189368729  0.5019493625776720
  0.3485083091420273  0.5922165809794291  0.9984734172716566
  0.6508326071065488  0.1020761999571725  0.5003238805777819
  0.8466080603738133  0.5925635821970284  0.4981562484552565
  0.8479654633750663  0.9073082450936489  0.0020156110206395
  0.2923574695423788  0.5440751180669640  0.3648962962788900
  0.7119248731192628  0.0523319367155668  0.1390222684568457
  0.2111940542797211  0.4479160242487880  0.8616024511934555
  0.2133521664180053  0.0473987492605818  0.3659463147194688
  0.2877301667477581  0.9473468114099796  0.8611269240077891
  0.7066878856434901  0.4546738973883310  0.6342035678744967
  0.7867070218237490  0.9533549512988926  0.6340705455042138
  0.7886654276413576  0.5523429142757530  0.1383112286691267
  0.5069310572665473  0.5074782882690684  0.4905782621427157
  0.4467688690676126  0.0631934503061965  0.0654422074641163
  0.9463360271833026  0.4369699848027585  0.9346482548140559
  0.9475812072116095  0.0586905779206245  0.4348052231544463
  0.5530948959842875  0.9364217476327737  0.9344547608338070
  0.0529038573208944  0.9427924784973573  0.5652037874725045
  0.0534468183603616  0.5630661776006303  0.0653499141279259
  0.5831495977117910  0.3829037788934662  0.2552426087788223
  0.4161532104982891  0.8785929324398136  0.2489153614512154
  0.9134193468170124  0.6185224119351286  0.7522307577304780
  0.9169099129420057  0.8855567717054560  0.2538520417856068
  0.5833071792559043  0.1184483452386907  0.7511677253814899
  0.4167764290985144  0.6175137281706556  0.7447585235272846
  0.0841785619002472  0.1152168084439208  0.7461885943789950
  0.0860110522155980  0.3828039666271140  0.2476173180969397
  0.8343031448483657  0.1056576960440187  0.8295639476128102
  0.1661623164801741  0.6134543730352569  0.6678315164225996
  0.6603535906708768  0.8714525821114838  0.3376236987881586
  0.6638979812671800  0.6055799662389614  0.8296603765624030
  0.8343888460376979  0.3880879383446200  0.3322185613188242
  0.1655841589451609  0.8947509057977219  0.1702788630021977
  0.3361772851294320  0.3935755902677752  0.1704093620025573
  0.3408529034668981  0.1340829902854349  0.6607692017892547
  0.0397155372534022  0.8324472342794359  0.8739685133473583
  0.9562001236451474  0.3389018872958287  0.6255137736979206
  0.4577521185125831  0.1597864213968178  0.3757514137403692
  0.4581087553377023  0.3323259122738861  0.8728794338712047
  0.0437250817022063  0.6623853666183304  0.3744462563104867
  0.9600155690336379  0.1676098643549987  0.1260456107660566
  0.5414742105396780  0.6673454762493317  0.1268201897737306
  0.5425845441241544  0.8370751837750635  0.6241379848942729
  0.3688566420474451  0.2077714963443772  0.9566063931570780
  0.6404225706143770  0.7276806047744248  0.5419690603668613
  0.1298139129387696  0.7862350960475866  0.4588186638529799
  0.1306004641096715  0.7081021633368680  0.9570540695899560
  0.3613812149579161  0.2721473608384442  0.4579943901312608
  0.6308732146760014  0.7921523899638000  0.0431802449798496
  0.8691221962066902  0.2920094034122434  0.0429834080391939
  0.8700227087956152  0.2149058135318777  0.5411859404377193
  0.4460828230301915  0.8412931585007589  0.3788202136317768
  0.5527406100238458  0.3491419136995220  0.1240629986575506
  0.0513003951423625  0.1506172388813244  0.8760452794282908
  0.0543248061842677  0.3448816913847279  0.3770815401824300
  0.4468426310045877  0.6505876185103161  0.8757401752270946
  0.5558007656104279  0.1550899878663273  0.6212124731229912
  0.9461884380192961  0.6563552459469369  0.6228955559343512
  0.9485838911941277  0.8494361214726347  0.1239429113536919
  0.1358286608881772  0.2490400234563546  0.6253622630211622
  0.8589540681483484  0.7444851482090673  0.8765924765373722
  0.3607397674482528  0.7552902961657106  0.1243689426974198
  0.3625432883121202  0.7529609418915163  0.6224760229952857
  0.1407903227158576  0.2556183812654471  0.1233862967402318
  0.8640898918880533  0.7524070869754741  0.3747474442943666
  0.6372934397081575  0.2493093599367203  0.3777034690114405
  0.6387613392189048  0.2440339758303564  0.8754216402062889
  0.6311753299110904  0.7571936303759843  0.2148849656688889
  0.3688844156956931  0.2511436218664899  0.2870488055227797
  0.8643857880458532  0.2467431592017089  0.7125736649580243
  0.8713220428836578  0.2591901469736619  0.2141222879208229
  0.6317582895913796  0.7469728661121426  0.7129299444132129
  0.3684974365214024  0.2424698744347057  0.7847742293869076
  0.1283051804461905  0.7408446980676190  0.7859306669578964
  0.1355611734452868  0.7542250740208835  0.2873787133923324
