Na3AlS3 bottleneck 10_relax             
   1.0000000000000000     
    12.1828203277415312    0.0000000000000000    0.0000000000000007
    -0.0000000000000005    7.5674693205415418    1.1970639402156102
     0.0000000000000000    0.0113082934473333   13.7304524371335805
   Na   Al   S 
    23     8    24
Direct
  0.9689234591130412  0.0797939631224305  0.7717188603908933
  0.7380787337781918  0.0017761679244011 -0.0302331837228786
  0.7976685471843725  0.5393316220227589  0.7446833361867772
  0.7283789219993987  0.9083265737277980  0.5614941576747902
  0.8938282954021989  0.0808287793683168  0.4501829426393765
  0.2488130451452369  0.5679287835185486  0.5210024799883474
  0.7802278530556109  0.5227642803349311  0.2999866250458519
  0.2779524756523633  0.0615305492675549  0.5239737081293711
  0.7079986354764464  0.5326755754609155 -0.0386457035507533
  0.4194750460899491  0.3850988451025432  0.6430660377837770
  0.2844375330554916  0.5217414680356435  0.9073476190654933
  0.2711272640937202  0.0151044306758403  0.9072238384430884
  0.7529594924271273  0.4070277309116520  0.5594033075712236
  0.2096015825792132  0.4420143729951573  0.3317558529840030
  0.5805346786094578  0.5937300982915908  0.4036894400207903
  0.3390606066376254  0.9972719103848087  0.7381954949429351
  0.0914585099147132  0.8859628196012918  0.6463662642632297
  0.3452785820091873  0.9603487025661649  0.3012696411133139
  0.1813099394821502  0.4982062068226486  0.7334295080208164
  0.5156215321031350  0.3950267020593613  0.2269556724683297
  0.6894141247001976  0.0285692510588611  0.7545945481506255
  0.5268532914839273  0.5922422628644980  0.7889613024284411
  0.6596496996706390 -0.0143368409805598  0.2792102525709654
 -0.0650596231386538  0.3321513297126166 -0.0925626375233499
  0.0195003096054111  0.2671613451994581  0.6700426521535087
  0.5468945143654662  0.1139179227636951  0.5584702150328379
  0.4852890200458044  0.7991702993517483  0.6194305137280776
  0.5763263589644420  0.1824689835053723  0.8016063737277218
  0.7066390871862090  0.9203833297230418 -0.0315880214680739
  0.9327517493170849  0.6211907148552251  0.6069893477500867
  0.9305764514953297  0.8250896470183421  0.6579040112759128
  0.4084946314862716  0.3308303930796568  0.6979052411506993
  0.4096225545022923  0.0114888107006944  0.1133481742039295
  0.4496100286952524  0.3404340974936656  0.5938798120919279
  0.1700593046101540  0.9203924325620438  0.6241418701985585
 -0.1824564510085076  0.0059959444040027  0.0145932865162476
  0.6598038101213034  0.7306555073249104  0.1436014472555094
  0.7334585045990764  0.7317180535553756  0.4757631889564786
  0.1082345038788015  0.8797570621197105  0.6918203679408262
  0.3107818742585150  0.7472104085084508  0.6499996840502638
  0.5977663463878393  0.9448624615380037  0.7469940606413834
  0.6360592298046616  0.2819217134373789  0.7817766474824297
  0.4116251594662816 -0.0955310165449771  0.1957937992486145
  0.2035004225993597  0.2244674414662943  0.6649822635705211
  0.0167480314861927  0.3246239025199518  0.5824727664442046
  0.5824864377150821  0.6013394983829718  0.6304467749299939
  0.6179823967787841  0.1295126881833502  0.0387692816175757
  0.6370347016816454  0.2277718965539414  0.5021440319982844
  0.8961590001819559  0.0764686427231372  0.6399304789242977
  0.9685631119464718  0.5660264536100008  0.6861712557231295
  0.9228557693155892  0.4792735634585305  0.4742256943071443
  0.6854764171950789  0.8952852139753942  0.7464551421654926
  0.5477248065276917  0.0687506929525851  0.6504120703660419
  0.5431042764009922  0.7242320163587661  0.1025514697768262
  0.5064036825025146  0.8700308755129182  0.5419725518911611

  0.00000000E+00  0.00000000E+00  0.00000000E+00
  0.00000000E+00  0.00000000E+00  0.00000000E+00
  0.00000000E+00  0.00000000E+00  0.00000000E+00
  0.00000000E+00  0.00000000E+00  0.00000000E+00
  0.00000000E+00  0.00000000E+00  0.00000000E+00
  0.00000000E+00  0.00000000E+00  0.00000000E+00
  0.00000000E+00  0.00000000E+00  0.00000000E+00
  0.00000000E+00  0.00000000E+00  0.00000000E+00
  0.00000000E+00  0.00000000E+00  0.00000000E+00
  0.00000000E+00  0.00000000E+00  0.00000000E+00
  0.00000000E+00  0.00000000E+00  0.00000000E+00
  0.00000000E+00  0.00000000E+00  0.00000000E+00
  0.00000000E+00  0.00000000E+00  0.00000000E+00
  0.00000000E+00  0.00000000E+00  0.00000000E+00
  0.00000000E+00  0.00000000E+00  0.00000000E+00
  0.00000000E+00  0.00000000E+00  0.00000000E+00
  0.00000000E+00  0.00000000E+00  0.00000000E+00
  0.00000000E+00  0.00000000E+00  0.00000000E+00
  0.00000000E+00  0.00000000E+00  0.00000000E+00
  0.00000000E+00  0.00000000E+00  0.00000000E+00
  0.00000000E+00  0.00000000E+00  0.00000000E+00
  0.00000000E+00  0.00000000E+00  0.00000000E+00
  0.00000000E+00  0.00000000E+00  0.00000000E+00
  0.00000000E+00  0.00000000E+00  0.00000000E+00
  0.00000000E+00  0.00000000E+00  0.00000000E+00
  0.00000000E+00  0.00000000E+00  0.00000000E+00
  0.00000000E+00  0.00000000E+00  0.00000000E+00
  0.00000000E+00  0.00000000E+00  0.00000000E+00
  0.00000000E+00  0.00000000E+00  0.00000000E+00
  0.00000000E+00  0.00000000E+00  0.00000000E+00
  0.00000000E+00  0.00000000E+00  0.00000000E+00
  0.00000000E+00  0.00000000E+00  0.00000000E+00
  0.00000000E+00  0.00000000E+00  0.00000000E+00
  0.00000000E+00  0.00000000E+00  0.00000000E+00
  0.00000000E+00  0.00000000E+00  0.00000000E+00
  0.00000000E+00  0.00000000E+00  0.00000000E+00
  0.00000000E+00  0.00000000E+00  0.00000000E+00
  0.00000000E+00  0.00000000E+00  0.00000000E+00
  0.00000000E+00  0.00000000E+00  0.00000000E+00
  0.00000000E+00  0.00000000E+00  0.00000000E+00
  0.00000000E+00  0.00000000E+00  0.00000000E+00
  0.00000000E+00  0.00000000E+00  0.00000000E+00
  0.00000000E+00  0.00000000E+00  0.00000000E+00
  0.00000000E+00  0.00000000E+00  0.00000000E+00
  0.00000000E+00  0.00000000E+00  0.00000000E+00
  0.00000000E+00  0.00000000E+00  0.00000000E+00
  0.00000000E+00  0.00000000E+00  0.00000000E+00
  0.00000000E+00  0.00000000E+00  0.00000000E+00
  0.00000000E+00  0.00000000E+00  0.00000000E+00
  0.00000000E+00  0.00000000E+00  0.00000000E+00
  0.00000000E+00  0.00000000E+00  0.00000000E+00
  0.00000000E+00  0.00000000E+00  0.00000000E+00
  0.00000000E+00  0.00000000E+00  0.00000000E+00
  0.00000000E+00  0.00000000E+00  0.00000000E+00
  0.00000000E+00  0.00000000E+00  0.00000000E+00
