Na1 Si1 S2                              
   1.0000000000000000     
     3.5339536070723865   -0.0000000000002613   -0.0000000000000000
    -1.7669768035866547    3.0604935995643041    0.0000000000000000
     0.0000000000000000    0.0000000000000000    6.7261578257914296
   Na   Si   S 
     1     1     2
Direct
  0.0000000000000000  0.0000000000000000  0.5000003193698035
  0.0000000000000000  0.0000000000000000  0.0000000000000000
  0.3333329209082763  0.6666658418165525  0.7999496911396236
  0.6666658883083301  0.3333329209082763  0.1955907489433242

  0.00000000E+00  0.00000000E+00  0.00000000E+00
  0.00000000E+00  0.00000000E+00  0.00000000E+00
  0.00000000E+00  0.00000000E+00  0.00000000E+00
  0.00000000E+00  0.00000000E+00  0.00000000E+00
