Na1 Si1 S2
1.0
   3.5486775670074833   -0.0000000000005125   -0.0000000000000000
  -1.7743387835546298    3.0732449229130845    0.0000000000000000
  -0.0000000000000000    0.0000000000000000    6.6952186133646920
Na Si S
1 1 2
direct
   0.0000000000000000    0.0000000000000000    0.5000003193698035 Na
   0.0000000000000000    0.0000000000000000    0.0000000000000000 Si
   0.3333329209082763    0.6666658418165525    0.7951876163425364 S
   0.6666658883083301    0.3333329209082763    0.2048130223823411 S
