Na Al S                                 
   1.0000000000000000     
    12.1026382039385112    0.0000000000000000    0.0000000000000007
    -0.0000000000000004    7.0938170788834114    0.0000000000000004
     0.0000000000000000    0.0000000000000000   21.6510149562332330
   Na   Al   S 
    39     8    32
Direct
  0.3480298191040632  0.9074620836427840  0.4985885440134439
  0.6480892906858884  0.4077883213686277  0.9982240909591695
  0.1577591412451724  0.0999995986817481  0.9969919225886343
  0.1522933490612814  0.4084499237476962  0.4987393499935209
  0.3363522473646583  0.5892686909289750  0.9932795473049794
  0.6519184354816971  0.0907702345135704  0.5011861418659009
  0.8479335159116346  0.5909951377596556  0.5012052344205955
  0.8562600881371978  0.9049043752482149  0.9992934311058477
  0.2877871843091384  0.5507669590875821  0.3626332575922149
  0.7141104300867696  0.0486231477091934  0.1362500136848155
  0.2717077392454286  0.8481854179228066  0.8652401833242820
  0.2121213676432205  0.0510207063340644  0.3627400580559765
  0.7124207939105816  0.4479536844271905  0.6378032992022824
  0.7875239875409434  0.9486060984626050  0.6381078975596211
  0.7861663106697705  0.5495883124117711  0.1352600159153710
  0.5525581990173905  0.5610795402675350  0.4346738361493081
  0.4501527818978985  0.0579798104909983  0.0662698556958645
  0.9566766155745512  0.4413336867077646  0.9339622470596609
  0.9473149245204837  0.0613763643468843  0.4350122380012351
  0.5518199819130700  0.9382201623536659  0.9349277164126377
  0.4465487562724419  0.4370721425707771  0.5657914214032331
  0.0538266554012168  0.9378512205630187  0.5662010663911801
  0.0518326562514133  0.5605756600661422  0.0673841116496661
  0.5837292047668612  0.3840423569425298  0.2528480901860704
  0.4159670770507873  0.8831812352501913  0.2466669531207160
  0.9165125064033646  0.6191785760845363  0.7526413050078347
  0.9162136530800922  0.8849665662854704  0.2531493550663413
  0.5810982311274060  0.1148637251887337  0.7528839507960612
  0.4064572289459178  0.6249732246508799  0.7506135293835001
  0.0963640292492229  0.1425857240689936  0.7524030364466299
  0.0846119955254778  0.3838225662235217  0.2470203665346986
  0.8350771983699588  0.1052061081231841  0.8311814011995295
  0.1632894007120953  0.6096248197637024  0.6694121107426554
  0.6638236980823962  0.8925108686352274  0.3304836070332797
  0.6630194180285898  0.6031406232188203  0.8303380782147300
  0.8358919934059941  0.3934084738166632  0.3302955992683607
  0.1646975325773070  0.8917745920267137  0.1685664642309419
  0.3372816789382540  0.3907211952628487  0.1682749187895354
  0.3356502186272508  0.1062338494551867  0.6687121686007700
  0.0414462198745511  0.8306027383324306  0.8742847496107089
  0.9597520555088153  0.3321937227086167  0.6259810993750676
  0.4589962394732794  0.1665504066217309  0.3741363898964210
  0.4522319837881170  0.3338107596663775  0.8739856717528411
  0.0409076857901240  0.6667842193816398  0.3742790578647046
  0.9596723427906184  0.1666187493393210  0.1250114421953583
  0.5413784831811341  0.6649962830497245  0.1247845065782087
  0.5402432998771474  0.8312373524556236  0.6257259186810131
  0.3742837146674489  0.2065130745608741  0.9600305730584751
  0.6305695124280675  0.7067076681516085  0.5424474152705514
  0.1304515761125060  0.7919615257012040  0.4576782702023010
  0.1231534254067412  0.7197986752688550  0.9614769058948696
  0.3693897067807370  0.2915368795405584  0.4575330612139155
  0.6340361050334309  0.7896223662248900  0.0424123138672030
  0.8707972448839030  0.2906139436621373  0.0412411218231767
  0.8690840035326062  0.2067325396877990  0.5429476077544635
  0.4474226322308610  0.8485911594902262  0.3767443517179458
  0.5548996592119977  0.3473777295501677  0.1229751682907576
  0.0503655305007342  0.1455070630007143  0.8788862618798845
  0.0522545087421022  0.3488044707023832  0.3768997310484963
  0.4492800930003540  0.6506454481533268  0.8781127680020973
  0.5529050846911971  0.1493420916358446  0.6229123182319753
  0.9466741376014198  0.6501257975946473  0.6228497743980554
  0.9465581523634867  0.8490398249032935  0.1237862980432709
  0.1407508240526454  0.2473440062677597  0.6234560246850975
  0.8606025908667547  0.7383354131201969  0.8744685694727181
  0.3606737468207442  0.7517691151174617  0.1229205640176048
  0.3593040316292715  0.7449426481038302  0.6233069256883965
  0.1403328035769036  0.2539305291543954  0.1239540508198473
  0.8601287582152466  0.7551370066766978  0.3761187242888866
  0.6398456039942744  0.2546170346102201  0.3760312090049425
  0.6348434872947877  0.2417930757631197  0.8737703662271272
  0.6306805720053390  0.7570421425692544  0.2130130580412413
  0.3690146800314764  0.2572434031471502  0.2862657616168676
  0.8721129695789998  0.2428883657494225  0.7142342725859550
  0.8692375563604742  0.2589482136592380  0.2126100846974168
  0.6284932103531702  0.7411201624966637  0.7136486651401270
  0.3659410396176455  0.2428205957527041  0.7856270773939684
  0.1317200090165329  0.7522119088273200  0.7860771679320848
  0.1308978558552312  0.7576775999252945  0.2864142183143059

             NaN             NaN             NaN
             NaN             NaN             NaN
             NaN             NaN             NaN
             NaN             NaN             NaN
             NaN             NaN             NaN
             NaN             NaN             NaN
             NaN             NaN             NaN
             NaN             NaN             NaN
             NaN             NaN             NaN
             NaN             NaN             NaN
             NaN             NaN             NaN
             NaN             NaN             NaN
             NaN             NaN             NaN
             NaN             NaN             NaN
             NaN             NaN             NaN
             NaN             NaN             NaN
             NaN             NaN             NaN
             NaN             NaN             NaN
             NaN             NaN             NaN
             NaN             NaN             NaN
             NaN             NaN             NaN
             NaN             NaN             NaN
             NaN             NaN             NaN
             NaN             NaN             NaN
             NaN             NaN             NaN
             NaN             NaN             NaN
             NaN             NaN             NaN
             NaN             NaN             NaN
             NaN             NaN             NaN
             NaN             NaN             NaN
             NaN             NaN             NaN
             NaN             NaN             NaN
             NaN             NaN             NaN
             NaN             NaN             NaN
             NaN             NaN             NaN
             NaN             NaN             NaN
             NaN             NaN             NaN
             NaN             NaN             NaN
             NaN             NaN             NaN
             NaN             NaN             NaN
             NaN             NaN             NaN
             NaN             NaN             NaN
             NaN             NaN             NaN
             NaN             NaN             NaN
             NaN             NaN             NaN
             NaN             NaN             NaN
             NaN             NaN             NaN
             NaN             NaN             NaN
             NaN             NaN             NaN
             NaN             NaN             NaN
             NaN             NaN             NaN
             NaN             NaN             NaN
             NaN             NaN             NaN
             NaN             NaN             NaN
             NaN             NaN             NaN
             NaN             NaN             NaN
             NaN             NaN             NaN
             NaN             NaN             NaN
             NaN             NaN             NaN
             NaN             NaN             NaN
             NaN             NaN             NaN
             NaN             NaN             NaN
             NaN             NaN             NaN
             NaN             NaN             NaN
             NaN             NaN             NaN
             NaN             NaN             NaN
             NaN             NaN             NaN
             NaN             NaN             NaN
             NaN             NaN             NaN
             NaN             NaN             NaN
             NaN             NaN             NaN
             NaN             NaN             NaN
             NaN             NaN             NaN
             NaN             NaN             NaN
             NaN             NaN             NaN
             NaN             NaN             NaN
             NaN             NaN             NaN
             NaN             NaN             NaN
             NaN             NaN             NaN
