Na5AlS4 bottleneck NEB image 08
  1.0
     12.1026382039385112      0.0000000000000000      0.0000000000000007
     -0.0000000000000004      7.0938170788834114      0.0000000000000004
      0.0000000000000000      0.0000000000000000     21.6510149562332330
  Na  Al  S
  39  8  32
Direct
  0.3480298191040664  0.9074620836427847  0.4985885440134465
  0.6480892906858852  0.4077883213686268  0.9982240909591723
  0.1577591412451730  0.0999995986817466  0.9969919225886372
  0.1522933490612799  0.4084499237476987  0.4987393499935187
  0.3363522473646569  0.5892686909289763  0.9932795473049758
  0.6519184354816999  0.0907702345135703  0.5011861418659010
  0.8479335159116339  0.5909951377596574  0.5012052344205948
  0.8562600881371953  0.9049043752482140  0.9992934311058482
  0.2877871843091407  0.5507669590875843  0.3626332575922148
  0.7141104300867699  0.0486231477091900  0.1362500136848152
  0.2124428339074287  0.1306069176225981  0.2633206720515329
  0.2713862729812170  0.9685992066342732  0.9646595693287298
  0.7124207939105819  0.4479536844271877  0.6378032992022841
  0.7875239875409403  0.9486060984626040  0.6381078975596197
  0.7861663106697729  0.5495883124117716  0.1352600159153693
  0.5525581990173926  0.5610795402675385  0.4346738361493113
  0.4501527818978968  0.0579798104909992  0.0662698556958669
  0.9566766155745543  0.4413336867077672  0.9339622470596622
  0.9473149245204856  0.0613763643468826  0.4350122380012349
  0.5518199819130680  0.9382201623536660  0.9349277164126408
  0.4465487562724454  0.4370721425707781  0.5657914214032305
  0.0538266554012197  0.9378512205630184  0.5662010663911820
  0.0518326562514148  0.5605756600661437  0.0673841116496641
  0.5837292047668621  0.3840423569425326  0.2528480901860699
  0.4159670770507846  0.8831812352501914  0.2466669531207162
  0.9165125064033660  0.6191785760845372  0.7526413050078360
  0.9162136530800915  0.8849665662854672  0.2531493550663380
  0.5810982311274062  0.1148637251887334  0.7528839507960599
  0.4064572289459150  0.6249732246508815  0.7506135293835029
  0.0963640292492194  0.1425857240689937  0.7524030364466288
  0.0846119955254748  0.3838225662235242  0.2470203665346982
  0.8350771983699586  0.1052061081231835  0.8311814011995278
  0.1632894007120941  0.6096248197637030  0.6694121107426533
  0.6638236980823992  0.8925108686352252  0.3304836070332826
  0.6630194180285877  0.6031406232188181  0.8303380782147298
  0.8358919934059914  0.3934084738166608  0.3302955992683592
  0.1646975325773063  0.8917745920267132  0.1685664642309431
  0.3372816789382515  0.3907211952628515  0.1682749187895376
  0.3356502186272494  0.1062338494551890  0.6687121686007671
  0.0414462198745515  0.8306027383324324  0.8742847496107099
  0.9597520555088174  0.3321937227086177  0.6259810993750646
  0.4589962394732815  0.1665504066217290  0.3741363898964207
  0.4522319837881160  0.3338107596663753  0.8739856717528407
  0.0409076857901219  0.6667842193816398  0.3742790578647043
  0.9596723427906216  0.1666187493393221  0.1250114421953567
  0.5413784831811367  0.6649962830497238  0.1247845065782076
  0.5402432998771470  0.8312373524556242  0.6257259186810145
  0.3742837146674507  0.2065130745608753  0.9600305730584781
  0.6305695124280660  0.7067076681516056  0.5424474152705538
  0.1304515761125086  0.7919615257012066  0.4576782702022976
  0.1231534254067385  0.7197986752688557  0.9614769058948704
  0.3693897067807403  0.2915368795405600  0.4575330612139152
  0.6340361050334281  0.7896223662248899  0.0424123138672027
  0.8707972448839029  0.2906139436621347  0.0412411218231791
  0.8690840035326080  0.2067325396877958  0.5429476077544604
  0.4474226322308585  0.8485911594902268  0.3767443517179432
  0.5548996592119985  0.3473777295501707  0.1229751682907554
  0.0503655305007324  0.1455070630007148  0.8788862618798819
  0.0522545087421043  0.3488044707023806  0.3768997310484941
  0.4492800930003551  0.6506454481533296  0.8781127680020999
  0.5529050846911965  0.1493420916358435  0.6229123182319753
  0.9466741376014177  0.6501257975946479  0.6228497743980539
  0.9465581523634894  0.8490398249032916  0.1237862980432696
  0.1407508240526469  0.2473440062677598  0.6234560246850955
  0.8606025908667576  0.7383354131201990  0.8744685694727166
  0.3606737468207418  0.7517691151174608  0.1229205640176035
  0.3593040316292728  0.7449426481038290  0.6233069256883959
  0.1403328035769050  0.2539305291543983  0.1239540508198458
  0.8601287582152437  0.7551370066766974  0.3761187242888879
  0.6398456039942710  0.2546170346102213  0.3760312090049435
  0.6348434872947881  0.2417930757631210  0.8737703662271242
  0.6306805720053384  0.7570421425692542  0.2130130580412379
  0.3690146800314781  0.2572434031471470  0.2862657616168672
  0.8721129695789966  0.2428883657494257  0.7142342725859566
  0.8692375563604713  0.2589482136592388  0.2126100846974149
  0.6284932103531687  0.7411201624966627  0.7136486651401236
  0.3659410396176456  0.2428205957527042  0.7856270773939688
  0.1317200090165321  0.7522119088273218  0.7860771679320878
  0.1308978558552280  0.7576775999252968  0.2864142183143024
