Na2                                     
   1.0000000000000000     
     3.7296888776842900    0.0000000064042861   -0.0000000000000000
    -1.8648439277495963    3.2300049052052677    0.0000000000000000
     0.0000000000000000    0.0000000000000000    6.0991806608052999
   Na
     2
Direct
  0.3333330000000032  0.6666669999999968  0.2500000000000000
  0.6666669999999968  0.3333330000000032  0.7500000000000000

  0.00000000E+00  0.00000000E+00  0.00000000E+00
  0.00000000E+00  0.00000000E+00  0.00000000E+00
