Na2
1.0
   3.6887710000000000    0.0000000000000000    0.0000000000000000
  -1.8443849999999999    3.1945690000000000    0.0000000000000000
   0.0000000000000000    0.0000000000000000    6.2691939999999997
Na
2
direct
   0.3333330000000000    0.6666670000000000    0.2500000000000000 Na
   0.6666670000000000    0.3333330000000000    0.7500000000000000 Na
