SYSTEM = Li1.25Cr0.25Ti1.5O4 spinel
ENCUT = 520
PREC = Accurate
ISMEAR = 0
SIGMA = 0.05
EDIFF = 1E-5
EDIFFG = -0.02
IBRION = 2
ISIF = 3
NSW = 100
NELM = 80
ALGO = Fast
LREAL = Auto
LWAVE = .FALSE.
LCHARG = .FALSE.
