Li9 Ti6 Cr1 O8
1.0
   8.2500000000000000    0.0000000000000000    0.0000000000000000
   0.0000000000000000    8.2500000000000000    0.0000000000000000
   0.0000000000000000    0.0000000000000000    8.2500000000000000
Li Ti Cr Li O
8 6 1 1 8
direct
   0.1250000000000000    0.1250000000000000    0.1250000000000000 Li
   0.8750000000000000    0.8750000000000000    0.1250000000000000 Li
   0.8750000000000000    0.1250000000000000    0.8750000000000000 Li
   0.1250000000000000    0.8750000000000000    0.8750000000000000 Li
   0.3750000000000000    0.3750000000000000    0.3750000000000000 Li
   0.6250000000000000    0.6250000000000000    0.3750000000000000 Li
   0.6250000000000000    0.3750000000000000    0.6250000000000000 Li
   0.3750000000000000    0.6250000000000000    0.6250000000000000 Li
   0.5000000000000000    0.5000000000000000    0.5000000000000000 Ti
   0.0000000000000000    0.0000000000000000    0.5000000000000000 Ti
   0.0000000000000000    0.5000000000000000    0.0000000000000000 Ti
   0.5000000000000000    0.0000000000000000    0.0000000000000000 Ti
   0.2500000000000000    0.7500000000000000    0.7500000000000000 Ti
   0.7500000000000000    0.2500000000000000    0.2500000000000000 Ti
   0.2500000000000000    0.2500000000000000    0.7500000000000000 Cr
   0.7500000000000000    0.7500000000000000    0.2500000000000000 Li
   0.2610000000000000    0.2610000000000000    0.2610000000000000 O
   0.7390000000000000    0.7390000000000000    0.2610000000000000 O
   0.7390000000000000    0.2610000000000000    0.7390000000000000 O
   0.2610000000000000    0.7390000000000000    0.7390000000000000 O
   0.1130000000000000    0.1130000000000000    0.6130000000000000 O
   0.8870000000000000    0.8870000000000000    0.6130000000000000 O
   0.3870000000000000    0.1130000000000000    0.1130000000000000 O
   0.6130000000000000    0.8870000000000000    0.8870000000000000 O
