mp-560538_Na3AlS3 NEB_v2 image 05       
   1.0000000000000000     
    12.1828203277415312    0.0000000000000000    0.0000000000000007
    -0.0000000000000005    7.5674693205415418    1.1970639402156102
     0.0000000000000000    0.0113082934473333   13.7304524371335805
   Na   Al   S 
    23     8    24
Direct
  0.0039977316102977  0.0012866847424391  0.7520787358511640
  0.7629111575615752  0.9893214974362436  0.0032568833122397
  0.8237909055657155  0.4940081873385935  0.7516592342406767
  0.7524764451927979  0.9837065606079420  0.5149617982468726
  0.9527019466403743  0.1009128128385228  0.3354992026124393
  0.2400292548793885  0.5520054528391896  0.4800026776094768
  0.8228485900902101  0.5080707489205594  0.2507405023113094
  0.2409898224653162  0.0286213886351163  0.4954385969913631
  0.7504169956594637  0.4850188970209075  0.0080401146195754
  0.3870242400885360  0.3657258155047813  0.6566085961394776
  0.2569258180707621  0.5039626079089530  0.9923495159389475
  0.2502786574058931  0.0112172097273699  0.9919381889489145
  0.7466544700353595  0.4824750196298027  0.5127049515804600
  0.1812947621306975  0.4872861024833099  0.2463688235690427
  0.0309976389710158  0.9089562016909838  0.1747913086003692
  0.5450080592353146  0.5997520567631867  0.3313289576771581
  0.3144607776757908  0.9724692537928661  0.7570942458377345
  0.3188813663620920  0.9889092521217435  0.2498344802412191
  0.1663373855858836  0.5160570833138820  0.7527670810047624
  0.4735306721980876  0.4026219344076551  0.1796113476082724
  0.6880582298914248  0.0080194042913107  0.7520490026597884
  0.5229061500198924  0.5778734292426932  0.8055417334074946
  0.6784360169381785  0.0047708741480932  0.2479428658817326
  0.0059674857326613  0.3220658768253699  0.0738662023991878
  0.0096898805548875  0.3431220659199781  0.5747416206260638
  0.5081876912038723  0.1771309297600894  0.4290792068206599
  0.4974710955196144  0.8296896537345475  0.5731578917469591
  0.5063776058844880  0.1645422116910709  0.9246138813931069
  0.4961034081090219  0.8219673520341928  0.0726555860950810
  0.9920925736982937  0.6842512651686050  0.4296621619960632
  0.9966568405710774  0.6620457016549395  0.9298455318460697
  0.3557056857002863  0.3019220101403235  0.8594073207717017
  0.1666410453121472  0.2097458929932188  0.1288135658838030
  0.3615065538146567  0.3306804849016629  0.3676272080433733
  0.1516928925146530  0.7918098350046492  0.8718506274181763
  0.9941258112014850  0.6098354589319115  0.1000164166747837
  0.6446030618477039  0.6840355354438969  0.1408909263372493
  0.8304018582657946  0.7860428241597077  0.3724971484987947
  0.1346344415501264  0.8409282830704399  0.3598169362715211
  0.3383280499478545  0.7160358224909018  0.6307706224891234
  0.4996246530661992  0.8729896948004523  0.9033290219331818
  0.6647346371528897  0.2852036360039847  0.8721474391309556
  0.8595696042485415  0.1793478454130977  0.1442619167868315
  0.1681399565748762  0.2279201612054251  0.6365517558214719
  0.0139309083644505  0.3973955316305648  0.4042447006806711
  0.6484235492285109  0.6957409951537556  0.6374225422238098
  0.5012456741390707  0.1116943818443232  0.0949990645122867
  0.6665570966435226  0.2875242951052996  0.3672074892007018
  0.8566829293685387  0.2062112813594794  0.6329698014981417
  0.0003287731524324  0.6331382318538417  0.5979718476214373
  0.9995578682162787  0.3722020777746522  0.9056943991850162
  0.8416803297762740  0.7828469845382244  0.8674312668492306
  0.5135232195512245  0.1178439402660985  0.5979280251245811
  0.3385956567385335  0.7042145633377856  0.1323350733961206
  0.4914311230934985  0.8909903602456595  0.4030868123932123

             NaN             NaN             NaN
             NaN             NaN             NaN
             NaN             NaN             NaN
             NaN             NaN             NaN
             NaN             NaN             NaN
             NaN             NaN             NaN
             NaN             NaN             NaN
             NaN             NaN             NaN
             NaN             NaN             NaN
             NaN             NaN             NaN
             NaN             NaN             NaN
             NaN             NaN             NaN
             NaN             NaN             NaN
             NaN             NaN             NaN
             NaN             NaN             NaN
             NaN             NaN             NaN
             NaN             NaN             NaN
             NaN             NaN             NaN
             NaN             NaN             NaN
             NaN             NaN             NaN
             NaN             NaN             NaN
             NaN             NaN             NaN
             NaN             NaN             NaN
             NaN             NaN             NaN
             NaN             NaN             NaN
             NaN             NaN             NaN
             NaN             NaN             NaN
             NaN             NaN             NaN
             NaN             NaN             NaN
             NaN             NaN             NaN
             NaN             NaN             NaN
             NaN             NaN             NaN
             NaN             NaN             NaN
             NaN             NaN             NaN
             NaN             NaN             NaN
             NaN             NaN             NaN
             NaN             NaN             NaN
             NaN             NaN             NaN
             NaN             NaN             NaN
             NaN             NaN             NaN
             NaN             NaN             NaN
             NaN             NaN             NaN
             NaN             NaN             NaN
             NaN             NaN             NaN
             NaN             NaN             NaN
             NaN             NaN             NaN
             NaN             NaN             NaN
             NaN             NaN             NaN
             NaN             NaN             NaN
             NaN             NaN             NaN
             NaN             NaN             NaN
             NaN             NaN             NaN
             NaN             NaN             NaN
             NaN             NaN             NaN
             NaN             NaN             NaN
