mp-560538_Na3AlS3 NEB_v2 image 05
  1.0
     12.1828203277415312      0.0000000000000000      0.0000000000000007
     -0.0000000000000005      7.5674693205415418      1.1970639402156102
      0.0000000000000000      0.0113082934473333     13.7304524371335805
  Na  Al  S
  23  8  24
Direct
  0.0039977316102995  0.0012866847424412  0.7520787358511664
  0.7629111575615755  0.9893214974362435  0.0032568833122391
  0.8237909055657151  0.4940081873385943  0.7516592342406740
  0.7524764451927943  0.9837065606079436  0.5149617982468735
  0.9527019466403757  0.1009128128385263  0.3354992026124412
  0.2400292548793881  0.5520054528391862  0.4800026776094771
  0.8228485900902125  0.5080707489205561  0.2507405023113080
  0.2409898224653158  0.0286213886351186  0.4954385969913645
  0.7504169956594653  0.4850188970209092  0.0080401146195759
  0.3870242400885351  0.3657258155047831  0.6566085961394791
  0.2569258180707653  0.5039626079089561  0.9923495159389482
  0.2502786574058942  0.0112172097273690  0.9919381889489174
  0.7466544700353588  0.4824750196298033  0.5127049515804616
  0.1812947621306955  0.4872861024833077  0.2463688235690398
  0.0309976389710152  0.9089562016909829  0.1747913086003708
  0.5450080592353170  0.5997520567631881  0.3313289576771583
  0.3144607776757895  0.9724692537928653  0.7570942458377379
  0.3188813663620884  0.9889092521217442  0.2498344802412175
  0.1663373855858827  0.5160570833138811  0.7527670810047655
  0.4735306721980895  0.4026219344076525  0.1796113476082688
  0.6880582298914242  0.0080194042913076  0.7520490026597910
  0.5229061500198947  0.5778734292426921  0.8055417334074941
  0.6784360169381775  0.0047708741480945  0.2479428658817311
  0.0059674857326610  0.3220658768253714  0.0738662023991906
  0.0096898805548857  0.3431220659199751  0.5747416206260655
  0.5081876912038716  0.1771309297600898  0.4290792068206609
  0.4974710955196111  0.8296896537345488  0.5731578917469595
  0.5063776058844889  0.1645422116910684  0.9246138813931040
  0.4961034081090197  0.8219673520341926  0.0726555860950837
  0.9920925736982940  0.6842512651686032  0.4296621619960660
  0.9966568405710761  0.6620457016549425  0.9298455318460676
  0.3557056857002856  0.3019220101403223  0.8594073207717043
  0.1666410453121479  0.2097458929932205  0.1288135658837997
  0.3615065538146549  0.3306804849016636  0.3676272080433721
  0.1516928925146538  0.7918098350046523  0.8718506274181740
  0.9941258112014830  0.6098354589319088  0.1000164166747859
  0.6446030618477074  0.6840355354438936  0.1408909263372466
  0.8304018582657958  0.7860428241597055  0.3724971484987954
  0.1346344415501242  0.8409282830704403  0.3598169362715229
  0.3383280499478547  0.7160358224909043  0.6307706224891234
  0.4996246530661971  0.8729896948004535  0.9033290219331795
  0.6647346371528863  0.2852036360039851  0.8721474391309552
  0.8595696042485411  0.1793478454130950  0.1442619167868341
  0.1681399565748781  0.2279201612054221  0.6365517558214703
  0.0139309083644536  0.3973955316305665  0.4042447006806693
  0.6484235492285080  0.6957409951537562  0.6374225422238086
  0.5012456741390694  0.1116943818443264  0.0949990645122879
  0.6665570966435225  0.2875242951052986  0.3672074892007029
  0.8566829293685398  0.2062112813594776  0.6329698014981449
  0.0003287731524320  0.6331382318538403  0.5979718476214347
  0.9995578682162800  0.3722020777746534  0.9056943991850186
  0.8416803297762725  0.7828469845382235  0.8674312668492321
  0.5135232195512267  0.1178439402660963  0.5979280251245793
  0.3385956567385332  0.7042145633377851  0.1323350733961184
  0.4914311230935004  0.8909903602456581  0.4030868123932118
