user_Na5AlS4_Na5AlS4 NEB_v2 image 08    
   1.0000000000000000     
    12.1026382039385112    0.0000000000000000    0.0000000000000007
    -0.0000000000000004    7.0938170788834114    0.0000000000000004
     0.0000000000000000    0.0000000000000000   21.6510149562332330
   Na   Al   S 
    39     8    32
Direct
  0.3507677990244673  0.8978614169729866  0.4992799435491335
  0.6513558875811327  0.4076842641628744  0.0016773616568670
  0.1521212680292194  0.0927151401583970  0.9981875593213161
  0.1498469844042347  0.4045775782270198  0.5012840067926660
  0.3487192849900751  0.5927309794629352  0.9987853966630951
  0.6514301886513110  0.1022557074862220  0.5001708703186551
  0.8401133126489029  0.5867350344534614  0.4971204295175298
  0.8483817481396017  0.9076014412390805  0.0020013724088273
  0.2940004099944957  0.5471840884620889  0.3667785114881426
  0.7125926032434506  0.0525250546716336  0.1394331962852675
  0.2116040961726284  0.4479510412744077  0.8616672798365670
  0.2138993514196912  0.0477208281486128  0.3659564310463210
  0.2882139960200405  0.9471086508418409  0.8611870779652264
  0.7083119270220806  0.4570418864897334  0.6361965158698837
  0.7870548537331885  0.9525463951555793  0.6341754707629903
  0.7886078937873862  0.5526982704602048  0.1383253756204752
  0.4789493475160427  0.4757239072945296  0.5290267077772057
  0.4473564858710191  0.0638610124448320  0.0656902214973343
  0.9464437322781336  0.4370282287017844  0.9345987342900770
  0.9470310313708907  0.0556792742384360  0.4346743285733652
  0.5536758016005052  0.9367738459523522  0.9347177411855725
  0.0523839235193364  0.9394924502788271  0.5650315839540312
  0.0533085908679638  0.5629740066347040  0.0653334192273576
  0.5839688007713022  0.3808638241290012  0.2553490375552201
  0.4170460626860617  0.8837067460787935  0.2487257918524719
  0.9145999664478808  0.6174081061285008  0.7524198861783802
  0.9155545296999321  0.8858675854916811  0.2541233487222954
  0.5839148378701964  0.1222437766354432  0.7511101294351121
  0.4178824419761327  0.6144573374237225  0.7447144992573129
  0.0821610489797635  0.1149573607875354  0.7463857843523130
  0.0869359373504111  0.3825393184163204  0.2478198898557125
  0.8342117641711795  0.1052536410650973  0.8297871060193742
  0.1657076481590778  0.6104317243660518  0.6676946542593143
  0.6576829612010044  0.8619018234178881  0.3404548921121275
  0.6641729265906804  0.6067565972945630  0.8296367860491785
  0.8341714004885716  0.3859500587529965  0.3319925247836792
  0.1653298696760999  0.8942936828346006  0.1704368169380430
  0.3363406320804572  0.3953783763172964  0.1705305311163201
  0.3376375589715366  0.1229542456168176  0.6635100352055474
  0.0401499861670018  0.8325241422347602  0.8739599596039227
  0.9558622405432473  0.3362003023165556  0.6255983196749781
  0.4575979605116203  0.1658516100502681  0.3760306448928503
  0.4585045397861691  0.3324681553696109  0.8733626212580674
  0.0437684443857762  0.6603375984213997  0.3746278239439391
  0.9603599729327144  0.1679737236958445  0.1260074452580255
  0.5417791333991389  0.6679982305785472  0.1273552358436802
  0.5422477667371766  0.8423029566394931  0.6243801009207033
  0.3692679778345394  0.2079691147804539  0.9570317187501871
  0.6369604898183354  0.7275499972041004  0.5419688934105338
  0.1306631827438878  0.7840892495114744  0.4586712852865418
  0.1309226288502714  0.7081558915203061  0.9570565994719047
  0.3581026426666725  0.2725456787379628  0.4580682097165507
  0.6312504101792200  0.7926836187941930  0.0436599824659893
  0.8695157614466495  0.2921827974572295  0.0429057800530543
  0.8702149271534196  0.2119013749330065  0.5410990950469809
  0.4423391753739949  0.8481895301557358  0.3787079313378214
  0.5533109875554771  0.3498512094171886  0.1243680312567221
  0.0515606866311273  0.1505801998158489  0.8761725047101194
  0.0534617916059545  0.3428829970441356  0.3769635639459779
  0.4473739939148302  0.6507254236308526  0.8759843664059659
  0.5518649271277809  0.1612146154578227  0.6212597156276587
  0.9451353752020850  0.6536017259804652  0.6226602840245121
  0.9485726788065136  0.8498116548481676  0.1240397724864053
  0.1354625230715527  0.2456263360388178  0.6254183290683457
  0.8593796380756089  0.7442126163074221  0.8765547063113530
  0.3611628179083297  0.7566234340517255  0.1246763423518900
  0.3632535291143881  0.7472418007026747  0.6221359130309736
  0.1411588953395864  0.2557726539659342  0.1233481043813569
  0.8640581812964570  0.7496440878278676  0.3749427211716991
  0.6382252991636008  0.2441450414296042  0.3773962476927650
  0.6392558245759545  0.2445961140589290  0.8757273947421780
  0.6314371720508518  0.7576160147499067  0.2155444917597933
  0.3685713570833400  0.2568120679280170  0.2872358670230142
  0.8638897347692946  0.2460995327166273  0.7128554587309779
  0.8718348724064953  0.2600007069291905  0.2139689672511622
  0.6314154731544406  0.7517593768583524  0.7130597946694479
  0.3687437267923244  0.2426299749787404  0.7853425555432807
  0.1289229040061812  0.7412169812106555  0.7857996784944916
  0.1351156662799724  0.7538771037995389  0.2875947164035537

             NaN             NaN             NaN
             NaN             NaN             NaN
             NaN             NaN             NaN
             NaN             NaN             NaN
             NaN             NaN             NaN
             NaN             NaN             NaN
             NaN             NaN             NaN
             NaN             NaN             NaN
             NaN             NaN             NaN
             NaN             NaN             NaN
             NaN             NaN             NaN
             NaN             NaN             NaN
             NaN             NaN             NaN
             NaN             NaN             NaN
             NaN             NaN             NaN
             NaN             NaN             NaN
             NaN             NaN             NaN
             NaN             NaN             NaN
             NaN             NaN             NaN
             NaN             NaN             NaN
             NaN             NaN             NaN
             NaN             NaN             NaN
             NaN             NaN             NaN
             NaN             NaN             NaN
             NaN             NaN             NaN
             NaN             NaN             NaN
             NaN             NaN             NaN
             NaN             NaN             NaN
             NaN             NaN             NaN
             NaN             NaN             NaN
             NaN             NaN             NaN
             NaN             NaN             NaN
             NaN             NaN             NaN
             NaN             NaN             NaN
             NaN             NaN             NaN
             NaN             NaN             NaN
             NaN             NaN             NaN
             NaN             NaN             NaN
             NaN             NaN             NaN
             NaN             NaN             NaN
             NaN             NaN             NaN
             NaN             NaN             NaN
             NaN             NaN             NaN
             NaN             NaN             NaN
             NaN             NaN             NaN
             NaN             NaN             NaN
             NaN             NaN             NaN
             NaN             NaN             NaN
             NaN             NaN             NaN
             NaN             NaN             NaN
             NaN             NaN             NaN
             NaN             NaN             NaN
             NaN             NaN             NaN
             NaN             NaN             NaN
             NaN             NaN             NaN
             NaN             NaN             NaN
             NaN             NaN             NaN
             NaN             NaN             NaN
             NaN             NaN             NaN
             NaN             NaN             NaN
             NaN             NaN             NaN
             NaN             NaN             NaN
             NaN             NaN             NaN
             NaN             NaN             NaN
             NaN             NaN             NaN
             NaN             NaN             NaN
             NaN             NaN             NaN
             NaN             NaN             NaN
             NaN             NaN             NaN
             NaN             NaN             NaN
             NaN             NaN             NaN
             NaN             NaN             NaN
             NaN             NaN             NaN
             NaN             NaN             NaN
             NaN             NaN             NaN
             NaN             NaN             NaN
             NaN             NaN             NaN
             NaN             NaN             NaN
             NaN             NaN             NaN
