user_Na5AlS4_Na5AlS4 NEB_v2 image 08
  1.0
     12.1026382039385112      0.0000000000000000      0.0000000000000007
     -0.0000000000000004      7.0938170788834114      0.0000000000000004
      0.0000000000000000      0.0000000000000000     21.6510149562332330
  Na  Al  S
  39  8  32
Direct
  0.3507677990244702  0.8978614169729869  0.4992799435491322
  0.6513558875811321  0.4076842641628752  0.0016773616568696
  0.1521212680292226  0.0927151401583992  0.9981875593213185
  0.1498469844042376  0.4045775782270224  0.5012840067926680
  0.3487192849900727  0.5927309794629352  0.9987853966630942
  0.6514301886513112  0.1022557074862230  0.5001708703186576
  0.8401133126489001  0.5867350344534595  0.4971204295175288
  0.8483817481396030  0.9076014412390833  0.0020013724088271
  0.2940004099944936  0.5471840884620869  0.3667785114881401
  0.7125926032434519  0.0525250546716369  0.1394331962852663
  0.2116040961726255  0.4479510412744049  0.8616672798365693
  0.2138993514196939  0.0477208281486143  0.3659564310463228
  0.2882139960200394  0.9471086508418420  0.8611870779652255
  0.7083119270220770  0.4570418864897366  0.6361965158698830
  0.7870548537331882  0.9525463951555798  0.6341754707629912
  0.7886078937873849  0.5526982704602077  0.1383253756204717
  0.4789493475160460  0.4757239072945317  0.5290267077772038
  0.4473564858710221  0.0638610124448291  0.0656902214973358
  0.9464437322781357  0.4370282287017819  0.9345987342900800
  0.9470310313708898  0.0556792742384390  0.4346743285733645
  0.5536758016005068  0.9367738459523491  0.9347177411855759
  0.0523839235193363  0.9394924502788295  0.5650315839540310
  0.0533085908679607  0.5629740066347025  0.0653334192273542
  0.5839688007713042  0.3808638241290044  0.2553490375552224
  0.4170460626860615  0.8837067460787950  0.2487257918524745
  0.9145999664478838  0.6174081061284983  0.7524198861783833
  0.9155545296999333  0.8858675854916798  0.2541233487222964
  0.5839148378701975  0.1222437766354439  0.7511101294351108
  0.4178824419761322  0.6144573374237243  0.7447144992573128
  0.0821610489797629  0.1149573607875348  0.7463857843523160
  0.0869359373504110  0.3825393184163237  0.2478198898557108
  0.8342117641711801  0.1052536410651005  0.8297871060193771
  0.1657076481590786  0.6104317243660490  0.6676946542593140
  0.6576829612010072  0.8619018234178907  0.3404548921121305
  0.6641729265906833  0.6067565972945611  0.8296367860491782
  0.8341714004885727  0.3859500587529959  0.3319925247836816
  0.1653298696760994  0.8942936828345985  0.1704368169380450
  0.3363406320804566  0.3953783763172969  0.1705305311163214
  0.3376375589715380  0.1229542456168163  0.6635100352055465
  0.0401499861670035  0.8325241422347627  0.8739599596039206
  0.9558622405432490  0.3362003023165556  0.6255983196749791
  0.4575979605116194  0.1658516100502667  0.3760306448928478
  0.4585045397861656  0.3324681553696115  0.8733626212580693
  0.0437684443857762  0.6603375984213994  0.3746278239439364
  0.9603599729327172  0.1679737236958457  0.1260074452580273
  0.5417791333991411  0.6679982305785449  0.1273552358436785
  0.5422477667371800  0.8423029566394914  0.6243801009207024
  0.3692679778345404  0.2079691147804535  0.9570317187501867
  0.6369604898183359  0.7275499972040986  0.5419688934105308
  0.1306631827438867  0.7840892495114743  0.4586712852865412
  0.1309226288502708  0.7081558915203027  0.9570565994719065
  0.3581026426666726  0.2725456787379613  0.4580682097165539
  0.6312504101792236  0.7926836187941948  0.0436599824659925
  0.8695157614466517  0.2921827974572266  0.0429057800530561
  0.8702149271534189  0.2119013749330100  0.5410990950469793
  0.4423391753739951  0.8481895301557383  0.3787079313378234
  0.5533109875554783  0.3498512094171900  0.1243680312567240
  0.0515606866311254  0.1505801998158515  0.8761725047101202
  0.0534617916059538  0.3428829970441354  0.3769635639459772
  0.4473739939148278  0.6507254236308494  0.8759843664059658
  0.5518649271277791  0.1612146154578192  0.6212597156276600
  0.9451353752020831  0.6536017259804670  0.6226602840245136
  0.9485726788065101  0.8498116548481647  0.1240397724864040
  0.1354625230715504  0.2456263360388199  0.6254183290683460
  0.8593796380756075  0.7442126163074237  0.8765547063113539
  0.3611628179083264  0.7566234340517228  0.1246763423518872
  0.3632535291143852  0.7472418007026775  0.6221359130309736
  0.1411588953395879  0.2557726539659355  0.1233481043813555
  0.8640581812964560  0.7496440878278674  0.3749427211717002
  0.6382252991636005  0.2441450414296037  0.3773962476927666
  0.6392558245759550  0.2445961140589312  0.8757273947421789
  0.6314371720508554  0.7576160147499099  0.2155444917597963
  0.3685713570833372  0.2568120679280204  0.2872358670230110
  0.8638897347692936  0.2460995327166302  0.7128554587309793
  0.8718348724064959  0.2600007069291907  0.2139689672511653
  0.6314154731544422  0.7517593768583494  0.7130597946694487
  0.3687437267923214  0.2426299749787399  0.7853425555432790
  0.1289229040061794  0.7412169812106569  0.7857996784944905
  0.1351156662799719  0.7538771037995387  0.2875947164035502
