Na In S                                 
   1.0000000000000000     
     6.8330688911791304    0.0000000000000000   -0.1272470229470229
    -0.0000000000000005    8.8359252756919275    0.0000000000000005
    -0.0048172062806638    0.0000000000000000    7.8804846921668430
   Na   In   S 
     9     2     8
Direct
  0.6681820516512218  0.5306401762385988  0.6622334796344660
  0.0949036188908607  0.9901238401727710  0.0836174151698970
  0.3531026838997775  0.4810956565277991  0.3236908352190326
  0.6380619040706677  0.9828536765221259  0.6594993176134452
  0.1827380174980320  0.2237418521338199  0.4895429576629056
  0.0642937550455684  0.7817101666546691  0.4718716897663313
  0.6789411325991637  0.2035231864305160  0.1432830367556193
  0.2993065694235213  0.7720188241693293  0.8645043747725580
  0.9801347753778273  0.4949945333379802  0.0001463941170954
  0.6539373342572006  0.7553014720035875  0.1838514997946206
  0.3435107606062715  0.2572650596217017  0.8342823974114779
  0.7675651022686480  0.7585566566073894  0.8846217312567433
  0.2224769431305447  0.2562541432242540  0.1087340917593167
  0.2309172780243216  0.0008127697732618  0.6960747451255287
  0.7644854881353425  0.5137959729584267  0.3254308092876244
  0.7840798298987366  0.9816787862927043  0.3381713604039192
  0.2216761359337056  0.4954268762962712  0.6669830777310040
  0.7081936450559283  0.2566582297098137  0.8150514044517010
  0.2877675935031832  0.7477047372298031  0.1851446079746069

             NaN             NaN             NaN
             NaN             NaN             NaN
             NaN             NaN             NaN
             NaN             NaN             NaN
             NaN             NaN             NaN
             NaN             NaN             NaN
             NaN             NaN             NaN
             NaN             NaN             NaN
             NaN             NaN             NaN
             NaN             NaN             NaN
             NaN             NaN             NaN
             NaN             NaN             NaN
             NaN             NaN             NaN
             NaN             NaN             NaN
             NaN             NaN             NaN
             NaN             NaN             NaN
             NaN             NaN             NaN
             NaN             NaN             NaN
             NaN             NaN             NaN
