Na5InS4 bottleneck NEB image 08         
   1.0000000000000000     
     6.8330688911791304    0.0000000000000000   -0.1272470229470229
    -0.0000000000000005    8.8359252756919275    0.0000000000000005
    -0.0048172062806638    0.0000000000000000    7.8804846921668430
   Na   In   S 
     9     2     8
Direct
  0.6676721128962981  0.5294131963311202  0.6614226888654642
  0.3446800505925154  0.3892402777161905  0.3290242757784299
  0.5841794001287468  0.0753860922875660  0.5864507855642316
  0.9280779238526833  0.1781619033151358  0.5407768408345817
  0.0422260174859375  0.8819725042377797  0.4767607639625169
  0.7214453247464263  0.1320810600209015  0.2297869948959814
  0.4316721197766924  0.8152834591055793  0.8884580443489369
  0.0564328905720970  0.9687923002224892  0.0051190770751433
  0.9802053536819955  0.4943296997293629  0.0007835507167329
  0.6533725648045703  0.7552236249061721  0.1838837154777053
  0.3386288193746338  0.2562407737725678  0.8221385636721834
  0.7666830853642992  0.7581715301517846  0.8841159772554121
  0.2193908351210183  0.2506048543892092  0.1172573999238935
  0.2279843745310970  0.0155262099079465  0.6831656483757556
  0.7632745179833123  0.5133585960778007  0.3250932774381070
  0.7843143180531413  0.9816396488252082  0.3377619682913178
  0.2203624445646994  0.4848504961329070  0.6600801485072196
  0.7071074512418463  0.2563465683676043  0.8145976615428268
  0.2874269342014344  0.7472466131824689  0.1852854068388297

             NaN             NaN             NaN
             NaN             NaN             NaN
             NaN             NaN             NaN
             NaN             NaN             NaN
             NaN             NaN             NaN
             NaN             NaN             NaN
             NaN             NaN             NaN
             NaN             NaN             NaN
             NaN             NaN             NaN
             NaN             NaN             NaN
             NaN             NaN             NaN
             NaN             NaN             NaN
             NaN             NaN             NaN
             NaN             NaN             NaN
             NaN             NaN             NaN
             NaN             NaN             NaN
             NaN             NaN             NaN
             NaN             NaN             NaN
             NaN             NaN             NaN
