Na In S 
 1.0000000000000000
     6.8330688911791304    0.0000000000000000   -0.1272470229470229
    -0.0000000000000005    8.8359252756919275    0.0000000000000005
    -0.0048172062806638    0.0000000000000000    7.8804846921668430
 Na  In  S  
   9   2   8
Direct
  0.6681820516512245  0.5306401762385996  0.6622334796344628
  0.0949036188908607 -0.0098761598272277  0.0836174151698994
  0.3531026838997808  0.4810956565278015  0.3236908352190296
  0.6380619040706670  0.9828536765221224  0.6594993176134452
  0.1827380174980323  0.2237418521338198  0.4895429576629054
  0.0642937550455677  0.7817101666546692  0.4718716897663314
  0.6789411325991634  0.2035231864305138  0.1432830367556179
  0.2993065694235207  0.7720188241693294  0.8645043747725577
 -0.0198652246221740  0.4949945333379813  0.0001463941170926
  0.6539373342571999  0.7553014720035902  0.1838514997946179
  0.3435107606062729  0.2572650596216987  0.8342823974114785
  0.7675651022686462  0.7585566566073900  0.8846217312567447
  0.2224769431305467  0.2562541432242512  0.1087340917593178
  0.2309172780243210  0.0008127697732620  0.6960747451255297
  0.7644854881353393  0.5137959729584262  0.3254308092876235
  0.7840798298987353  0.9816787862927012  0.3381713604039189
  0.2216761359337072  0.4954268762962702  0.6669830777310016
  0.7081936450559247  0.2566582297098153  0.8150514044517025
  0.2877675935031860  0.7477047372298027  0.1851446079746065
Cartesian
  0.0000000000000000  0.0000000000000000  0.0000000000000000
  0.0000000000000000  0.0000000000000000  0.0000000000000000
  0.0000000000000000  0.0000000000000000  0.0000000000000000
  0.0000000000000000  0.0000000000000000  0.0000000000000000
  0.0000000000000000  0.0000000000000000  0.0000000000000000
  0.0000000000000000  0.0000000000000000  0.0000000000000000
  0.0000000000000000  0.0000000000000000  0.0000000000000000
  0.0000000000000000  0.0000000000000000  0.0000000000000000
  0.0000000000000000  0.0000000000000000  0.0000000000000000
  0.0000000000000000  0.0000000000000000  0.0000000000000000
  0.0000000000000000  0.0000000000000000  0.0000000000000000
  0.0000000000000000  0.0000000000000000  0.0000000000000000
  0.0000000000000000  0.0000000000000000  0.0000000000000000
  0.0000000000000000  0.0000000000000000  0.0000000000000000
  0.0000000000000000  0.0000000000000000  0.0000000000000000
  0.0000000000000000  0.0000000000000000  0.0000000000000000
  0.0000000000000000  0.0000000000000000  0.0000000000000000
  0.0000000000000000  0.0000000000000000  0.0000000000000000
  0.0000000000000000  0.0000000000000000  0.0000000000000000
