Na5InS4 bottleneck NEB image 08
  1.0
      6.8330688911791304      0.0000000000000000     -0.1272470229470229
     -0.0000000000000005      8.8359252756919275      0.0000000000000005
     -0.0048172062806638      0.0000000000000000      7.8804846921668430
  Na  In  S
  9  2  8
Direct
  0.6676721128962966  0.5294131963311166  0.6614226888654613
  0.3446800505925139  0.3892402777161900  0.3290242757784309
  0.5841794001287497  0.0753860922875629  0.5864507855642286
  0.9280779238526815  0.1781619033151358  0.5407768408345847
  0.0422260174859348  0.8819725042377798  0.4767607639625166
  0.7214453247464292  0.1320810600209046  0.2297869948959810
  0.4316721197766933  0.8152834591055795  0.8884580443489342
  0.0564328905720995  0.9687923002224903  0.0051190770751453
  0.9802053536819928  0.4943296997293640  0.0007835507167315
  0.6533725648045718  0.7552236249061711  0.1838837154777050
  0.3386288193746316  0.2562407737725669  0.8221385636721816
  0.7666830853643009  0.7581715301517865  0.8841159772554124
  0.2193908351210162  0.2506048543892088  0.1172573999238930
  0.2279843745310952  0.0155262099079464  0.6831656483757549
  0.7632745179833134  0.5133585960778001  0.3250932774381043
  0.7843143180531381  0.9816396488252058  0.3377619682913178
  0.2203624445646960  0.4848504961329070  0.6600801485072206
  0.7071074512418466  0.2563465683676024  0.8145976615428255
  0.2874269342014353  0.7472466131824700  0.1852854068388293
