Na8 S16                                 
   1.0000000000000000     
     8.0931116223675232    0.0389857609646800   -3.8266948725645440
    -4.8572975348975866    7.4069821511553950   -1.2987822190316978
     0.0255657591596906   -0.0389857582548263    8.9521719735041891
   Na   S 
     8    16
Direct
 -0.0000000000000439  0.1727099253995901  0.1727099253996054
  0.0000000000000439  0.8272900746004097  0.8272900746003945
  0.5000000000000439  0.5772900746004097  0.0772900746003946
  0.4999999999999561  0.9227099253995903  0.4227099253996053
  0.5216027618460711  0.3750000000000952  0.3966027618459860
  0.9783972381538787  0.6033972381539586  0.1249999999998994
  0.0216027618461212  0.1466027618460413  0.6250000000001005
  0.4783972381539288  0.8749999999999046  0.8533972381540141
  0.2847391204274868  0.5478818279797780  0.3290366640183812
  0.2188421739616348  0.6709633359817140  0.9557024664092582
  0.7811578260383756  0.7368592924476116  0.4521181720200626
  0.7188421739616030  0.7057024664092677  0.9209633359816652
  0.2811578260384077  0.2021181720200566  0.9868592924476567
  0.7152608795725027  0.0442975335908977  0.2631407075522970
  0.7847391204274320  0.0790366640183298  0.7978818279797623
  0.2152608795725574  0.0131407075523447  0.2942975335909172
  0.2630549315170704  0.5142271380446394  0.5447815047308535
  0.9694436333139028  0.4552184952691671  0.7182754267863162
  0.0305563666860899  0.7488297934724000  0.4857728619552464
  0.4694436333138717  0.4682754267863086  0.7052184952691360
  0.5305563666861208  0.2357728619552515  0.9988297934724335
  0.7369450684829368  0.2817245732138004  0.2511702065275766
  0.7630549315170447  0.2947815047308232  0.7642271380446374
  0.2369450684829627  0.0011702065276097  0.5317245732138001

  0.00000000E+00  0.00000000E+00  0.00000000E+00
  0.00000000E+00  0.00000000E+00  0.00000000E+00
  0.00000000E+00  0.00000000E+00  0.00000000E+00
  0.00000000E+00  0.00000000E+00  0.00000000E+00
  0.00000000E+00  0.00000000E+00  0.00000000E+00
  0.00000000E+00  0.00000000E+00  0.00000000E+00
  0.00000000E+00  0.00000000E+00  0.00000000E+00
  0.00000000E+00  0.00000000E+00  0.00000000E+00
  0.00000000E+00  0.00000000E+00  0.00000000E+00
  0.00000000E+00  0.00000000E+00  0.00000000E+00
  0.00000000E+00  0.00000000E+00  0.00000000E+00
  0.00000000E+00  0.00000000E+00  0.00000000E+00
  0.00000000E+00  0.00000000E+00  0.00000000E+00
  0.00000000E+00  0.00000000E+00  0.00000000E+00
  0.00000000E+00  0.00000000E+00  0.00000000E+00
  0.00000000E+00  0.00000000E+00  0.00000000E+00
  0.00000000E+00  0.00000000E+00  0.00000000E+00
  0.00000000E+00  0.00000000E+00  0.00000000E+00
  0.00000000E+00  0.00000000E+00  0.00000000E+00
  0.00000000E+00  0.00000000E+00  0.00000000E+00
  0.00000000E+00  0.00000000E+00  0.00000000E+00
  0.00000000E+00  0.00000000E+00  0.00000000E+00
  0.00000000E+00  0.00000000E+00  0.00000000E+00
  0.00000000E+00  0.00000000E+00  0.00000000E+00
