Na8 S16
1.0
   8.0791415900000008    0.0338137700000000   -3.8237972600000001
  -4.8502472499999998    7.3962310400000000   -1.2907190700000000
   0.0221741100000000   -0.0338137700000000    8.9383136000000007
Na S
8 16
direct
  -0.0000000000000000    0.1719783300000000    0.1719783300000000 Na
   0.0000000000000000    0.8280216700000000    0.8280216700000000 Na
   0.5000000000000000    0.5780216700000000    0.0780216700000000 Na
   0.5000000000000000    0.9219783300000000    0.4219783300000000 Na
   0.5225938999999999    0.3750000000000000    0.3975939000000000 Na
   0.9774061000000001    0.6024061000000001    0.1250000000000000 Na
   0.0225939000000000    0.1475939000000000    0.6250000000000000 Na
   0.4774061000000000    0.8750000000000000    0.8524061000000001 Na
   0.2841708600000000    0.5478338200000000    0.3281371900000000 S
   0.2196936400000000    0.6718628100000000    0.9560336800000000 S
   0.7803063600000000    0.7363390399999999    0.4521661800000000 S
   0.7196936400000000    0.7060336800000000    0.9218628100000000 S
   0.2803063600000000    0.2021661800000000    0.9863390399999999 S
   0.7158291400000000    0.0439663200000000    0.2636609600000000 S
   0.7841708600000000    0.0781371900000000    0.7978338200000000 S
   0.2158291400000000    0.0136609600000000    0.2939663200000000 S
   0.2627055800000000    0.5140961700000000    0.5443875600000000 S
   0.9697066100000000    0.4556124400000000    0.7183200199999999 S
   0.0302933900000000    0.7486114100000000    0.4859038300000000 S
   0.4697066100000000    0.4683200200000000    0.7056124400000000 S
   0.5302933900000000    0.2359038300000000    0.9986114100000000 S
   0.7372944200000000    0.2816799800000000    0.2513885900000000 S
   0.7627055800000000    0.2943875600000000    0.7640961700000000 S
   0.2372944200000000    0.0013885900000000    0.5316799800000001 S
