Na24 Al8 S24                            
   1.0000000000000000     
    12.1828203277415312   -0.0000000000000000    0.0000000000000007
    -0.0000000000000010   15.1349386410830835    2.3941278804312205
     0.0000000000000000    0.0113082934473333   13.7304524371335805
   Na   Al   S 
    48    16    48
Direct
  0.9172650918060773  0.0555268945894714  0.8945120924439104
  0.7831776824987611  0.4760303531336995  0.0134280385367932
  0.7878682746115985  0.2514796395456641  0.7308314977569885
  0.8551880454378450  0.4688167356256344  0.5132415862812574
  1.0446087181613561  0.0868386879720444  0.2753855263296738
  0.2414865507175580  0.2579425932582934  0.5031212809746949
  0.8182971845571441  0.1889898097536455  0.2187685745257962
  0.2277870756604016  0.0138348970055972  0.4862557617225527
  0.7394809250729849  0.2833599848677160 -0.0176641995956056
  0.4370482687662316  0.1993254553029315  0.6426377282864988
  0.2374350135409029  0.2880509881955347  0.9831478708929737
  0.2656364012651523  0.0429206574962412  1.0081288606969543
  0.7665500518320250  0.2632439601192495  0.4613633774704082
  0.2244863735625078  0.2586631042675434  0.2533571684852090
  0.0343410446552669  0.4275827077943189  0.1816600653641376
  0.5304395422035748  0.2658275025154632  0.3984781172301028
  0.2900994770896285  0.5140382225158451  0.7616778406665701
  0.0609503939045537  0.4556190898282307  0.7100260943719153
  0.3253135266862994  0.4713804570638283  0.2433862347210745
  0.2215346973046429  0.2187283502519931  0.7822815031779609
  0.5090046634810287  0.1932423256312830  0.1800542536586707
  0.7121619397060626  0.0262147449832922  0.7521237646733961
  0.5481173065981563  0.2826174268289836  0.8440738182579154
  0.6931564704267967 -0.0032215570257155  0.2431975669726053
  0.9098012035313798  0.5847109966365432  0.8518604126362546
  0.7475831841893141  0.9366692239088411  0.0215217078328207
  0.8095094217430048  0.7611164665514444  0.7437746008008864
  0.7224522082211443  0.9671220141183964  0.5279069594968089
  1.0103582101014801  0.5571120173881030  0.3216938447662037
  0.2252270471443918  0.7635251458135274  0.4874916513023632
  0.8008255783383348  0.7319775398326028  0.2521298181523330
  0.2481475094182538  0.4968204602526506  0.5024922084757476
  0.7697381722354290  0.7076986118023598  0.0015316181612437
  0.4543950780493490  0.7094019627908911  0.6535663757136664
  0.2465814745483395  0.8110235851672420  0.9753157374148457
  0.2404406413508641  0.5880758403740017  0.9845600765554972
  0.7726371708420668  0.7159324544988545  0.5115501474623392
  0.1726686166557796  0.7487587060972019  0.2486002811018784
  0.0032066213287162  0.9463087749679756  0.1693346582978439
  0.5460721867014543  0.7836073553680757  0.3729506246208830
  0.3455110249387124  1.0058143183598225  0.7648367039512385
  0.0026338392978653  0.9822610844928175  0.7236377989973414
  0.2931077943353699  1.0091438998645004  0.2447226524829673
  0.2123163556936747  0.7479927028853988  0.7672925064886544
  0.4105909057928543  0.6930505349986910  0.1740364996527309
  0.6643605718265638  0.5088046014735473  0.7278615101217930
  0.5561426741111445  0.7857061823801894  0.8063347747545098
  0.6455767590245481  0.4947653384407546  0.2551698403707646
 -0.0047997960435371  0.1762130498180130  0.0498489337648491
 -0.0014816044448268  0.1669703911441358  0.5818118156685783
  0.4901161646748368  0.0670050532258694  0.4097900720732980
  0.4655368109493503  0.4103517901625015  0.5716982359529872
  0.5249022469764335  0.0667109814169883  0.9502059348015794
  0.4915329842153396  0.4082552153378707  0.0728572138645604
  1.0106767102963674  0.3369340976622928  0.4049670899847766
  0.9784177563856693  0.3513419433366439  0.9118327762874657
  0.0228649295465455  0.6591426310110614  0.0785271300675368
  0.0333100681336930  0.6681179237428206  0.5773195122152386
  0.5181634220649176  0.5777120449170341  0.4347869564821049
  0.4754742557456348  0.8953174156932974  0.5713340583120629
  0.5245386234262116  0.5779455864075629  0.9336247883259494
  0.5049831593063641  0.8942994531472814  0.0876732173601490
  0.9734299728771982  0.8436313454116833  0.4402180635741765
  0.9947329840028452  0.8477561161307919  0.9284683814637625
  0.3920439823072794  0.1474279291798470  0.8602858767237317
  0.1551509400271133  0.1266710179101785  0.1150565752859568
  0.3441505830589854  0.1528856987728008  0.3802802032843964
  0.1152406298978776  0.4566692163859732  0.9102181643216016
 -0.0650797862504894  0.3057971846694410  0.0794111360717438
  0.6473338639003507  0.3460307205076437  0.1432903779848579
  0.8639794684323725  0.4074989629919870  0.3483771422535948
  0.1519127781212393  0.4130874407469186  0.3464753731642490
  0.3084589020766110  0.3766933865075208  0.6590426507482318
  0.5190180889800399  0.4224356732397307  0.9159713068791353
  0.6709917540565614  0.1314773936222683  0.8770217837952448
  0.8641875357068575  0.0765366655624349  0.0952844624709534
  0.1791695387717442  0.1234009872632765  0.6338701193346845
  0.0046375904370495  0.1895677356883045  0.4120967694035290
  0.6135678920489355  0.3271494096017994  0.6137620459713272
  0.5504131128778958  0.0348615692639970  0.1089255541230649
  0.6518571897402781  0.1313405714936622  0.3456439207369266
  0.8410269401400993  0.1163535794989043  0.6318425320678376
  1.0174740153641202  0.3248746020498600  0.5664251003008326
  0.9970456215088452  0.2191110580590598  0.8535803505858242
  0.8455544372421272  0.4005025146677913  0.8094750908624840
  0.5249486818626429  0.0480495651404344  0.5681974851341481
  0.3561664256332054  0.3334202470305831  0.1314853775616981
  0.4648311164102750  0.4394473718822102  0.3969185882014836
  0.4002653916396565  0.6668021698361547  0.8419280936611628
  0.1576580986082910  0.5880128694345200  0.1632162093566608
  0.3725931577961979  0.6567021084345730  0.3821407684164974
  0.1073541204589395  0.9686591795354189  0.8818487855349588
 -0.0165203775970248  0.7928248286320542  0.0965263492474626
  0.6292927412912963  0.7911589569524395  0.1463233169222548
  0.8030131486972555  0.8733643550225970  0.3552444529927076
  0.1077535678511543  0.9260794139447099  0.3565115758908680
  0.3171722203951770  0.8711153185761996  0.6528092890845718
  0.4797501303389282  0.9295505678148746  0.9129690255715672
  0.6777320105195555  0.6369524520628870  0.8606654753085894
  0.8685017405371508  0.5899787728624928  0.1370258812897747
  0.1773852224197618  0.6237625664196041  0.6477156917555418
 -0.0004254116233346  0.7038591095641319  0.4014099708688102
  0.6321056059330861  0.8128482079631241  0.6159632891983654
  0.4822855684454360  0.5569467442531819  0.0950464869256566
  0.6809539426106239  0.6264788875338220  0.3825491695142864
  0.8876797825350936  0.5955319028383350  0.6402204385407873
  0.9830376272556763  0.8113537751754807  0.6049553436745089
  1.0629052066715408  0.7042504248309354  0.9121102742694410
  0.8262003151664857  0.8843230512460400  0.8592963499323162
  0.5056634909174816  0.5503019595423112  0.6114878267867213
  0.3274570315758629  0.8867308029754284  0.1326051103315108
  0.4557837109119294  0.9275914568105086  0.3921569977509566

  0.53931567E-02 -0.53830024E-02  0.32425373E-02
 -0.26092606E-02 -0.29386180E-02  0.24749020E-02
 -0.27375022E-02  0.13979859E-03  0.49778985E-02
  0.40314767E-02 -0.94544024E-02  0.63662985E-02
 -0.26521814E-02  0.71284097E-02 -0.12023938E-01
  0.62977012E-02  0.13124900E-03 -0.32780792E-03
 -0.86861612E-04 -0.71137925E-02  0.55617039E-02
 -0.10474921E-01  0.15074546E-02 -0.42388152E-02
  0.87644140E-02  0.43894730E-02  0.27528642E-03
 -0.15816835E-02  0.32451950E-02 -0.84015716E-05
  0.13199188E-02 -0.10028259E-01  0.68102820E-02
  0.27377081E-02  0.37514868E-02  0.78286019E-02
 -0.62874455E-02  0.39783050E-02 -0.32335611E-02
  0.24448364E-02  0.62262048E-02  0.30234293E-02
 -0.33205217E-02  0.10349122E-01  0.18293728E-02
  0.12548181E-01 -0.22303795E-02  0.43719462E-02
 -0.32229557E-02  0.51975180E-03  0.18528455E-02
  0.10426514E-01  0.49800879E-02  0.21681126E-02
  0.79471361E-02 -0.10075369E-02  0.41420322E-02
 -0.33373856E-02 -0.11171846E-01 -0.67868855E-02
 -0.95560513E-03 -0.13255412E-02  0.37562562E-02
  0.69008770E-02 -0.16098022E-02  0.66300485E-03
  0.82285479E-02 -0.37240290E-02 -0.10320052E-02
  0.53521424E-02  0.10811634E-01 -0.78339119E-02
 -0.49387243E-02 -0.21717449E-02  0.40595429E-02
  0.51813648E-02 -0.80211978E-02 -0.31176361E-02
  0.65700873E-02 -0.22901280E-02 -0.54229815E-02
 -0.23403485E-02 -0.10768132E-01  0.32615998E-02
 -0.65528680E-02 -0.76067467E-02  0.43832850E-03
  0.74166918E-02 -0.21620880E-02  0.27205931E-02
  0.12704953E-01 -0.56467330E-02  0.86175675E-02
  0.26358642E-02 -0.56743146E-02  0.76524192E-03
 -0.25911109E-02  0.49460223E-02  0.47607789E-02
  0.52880925E-02 -0.66047613E-02  0.34565191E-02
 -0.40132436E-02 -0.14121660E-02  0.38134693E-02
  0.93413187E-02  0.24992695E-02 -0.11253491E-01
  0.92762278E-03  0.46605536E-02 -0.78285449E-02
 -0.76144532E-02  0.35828697E-02 -0.32841889E-02
  0.10893384E-02 -0.22200135E-02  0.11108990E-02
 -0.79653903E-02  0.30027044E-02  0.19918659E-02
 -0.75273071E-02  0.29808416E-02 -0.31398833E-02
  0.15557696E-03  0.56037382E-02  0.14299310E-02
 -0.39571574E-02  0.48162649E-02  0.19735700E-02
 -0.71165003E-02  0.33031621E-02 -0.22046121E-02
 -0.37394167E-02 -0.27742854E-02 -0.82448123E-03
  0.79220467E-02  0.37567855E-02 -0.20491066E-02
 -0.43899389E-02 -0.42966341E-02  0.88925275E-02
 -0.40933276E-02  0.37872821E-02 -0.76303298E-02
 -0.43958039E-02 -0.23835006E-02 -0.27268020E-02
  0.32664310E-02  0.77306327E-03  0.51755603E-03
 -0.66269586E-02 -0.26180582E-02  0.69607852E-04
  0.11461794E-02 -0.42428255E-02  0.18098513E-02
  0.55443226E-02  0.38133511E-02 -0.45531532E-02
 -0.31305626E-03 -0.33103542E-03  0.16792513E-02
 -0.24019917E-02  0.97077077E-04 -0.18841199E-02
  0.35179114E-02  0.91372969E-02 -0.26298271E-02
 -0.61884317E-02 -0.27320043E-02 -0.52994395E-03
  0.13595429E-03  0.17404974E-02 -0.25899262E-03
  0.61500102E-02  0.29533596E-02  0.23620460E-02
 -0.54176230E-02  0.83777488E-03  0.93932049E-03
  0.67022331E-02 -0.22858989E-02  0.90323049E-02
  0.72464891E-03  0.34830744E-02 -0.21754421E-02
  0.46614020E-02 -0.39108413E-02 -0.72712322E-02
 -0.22716334E-02 -0.27106375E-03  0.87683327E-03
 -0.39638487E-02  0.11527365E-01  0.57302332E-02
  0.41796318E-02 -0.44449172E-02 -0.36383092E-02
 -0.79239766E-03 -0.30936614E-02  0.13670436E-03
  0.91201250E-03 -0.33793379E-02  0.11689704E-02
  0.46193565E-02  0.12381677E-02  0.11968557E-02
 -0.39976137E-03  0.79732498E-02  0.35035343E-03
  0.11650219E-02 -0.14632732E-02  0.10122518E-02
 -0.85011662E-02  0.37363926E-03 -0.16768754E-02
 -0.11125871E-03  0.15377395E-02  0.65340965E-02
 -0.33021413E-02  0.36323021E-03 -0.50024296E-03
  0.20982537E-02  0.14388971E-02 -0.10292044E-02
  0.32658936E-02  0.33274212E-02  0.21361547E-02
  0.11659599E-02  0.92982371E-02  0.19347268E-02
  0.88400586E-02 -0.34136345E-02  0.39872875E-02
 -0.13376294E-02 -0.32957472E-02 -0.42209575E-02
  0.35700134E-02  0.35380449E-02  0.27588135E-02
  0.74137535E-03  0.33204519E-03 -0.21497542E-02
  0.20859625E-02 -0.35504004E-02  0.78211512E-03
 -0.46639493E-02  0.71139845E-02 -0.27979727E-02
 -0.12405416E-02 -0.75852655E-02  0.84725822E-02
 -0.38897971E-02 -0.70504386E-02  0.68526906E-03
 -0.11537952E-02 -0.66026168E-02  0.15833123E-02
 -0.11307642E-02 -0.12151734E-02  0.55123533E-02
 -0.11346936E-02  0.39979921E-03 -0.35867682E-02
  0.54280264E-02  0.90853556E-03 -0.21565502E-02
 -0.19611512E-02 -0.14924511E-02 -0.10815689E-01
 -0.93371439E-02  0.64446933E-02 -0.79054767E-02
 -0.28494231E-02 -0.30139987E-02 -0.52871247E-02
  0.37573597E-02 -0.23577883E-03  0.58656208E-02
 -0.58891472E-02  0.85998707E-02  0.48976747E-02
 -0.23824412E-02 -0.30671953E-02 -0.32449951E-03
  0.24578678E-02  0.10560705E-01 -0.47287326E-02
  0.28541865E-02 -0.12316327E-01 -0.72770989E-03
 -0.71281674E-02  0.25287733E-02  0.41094703E-02
 -0.55171083E-02  0.22556884E-02  0.36596854E-02
 -0.41354682E-02  0.10945180E-02 -0.74139233E-02
 -0.17038814E-02 -0.22481801E-02 -0.33819012E-02
  0.28209245E-02  0.40711995E-02  0.14336372E-02
 -0.10081578E-04  0.54445998E-03 -0.56545772E-02
 -0.57673408E-02  0.12201525E-02 -0.41213295E-02
  0.29710231E-02 -0.53235625E-02  0.35732935E-02
  0.58909358E-02 -0.98709642E-03 -0.59334296E-02
 -0.46029279E-02  0.51176313E-02  0.12279500E-02
  0.42609496E-02 -0.52215864E-02  0.10677780E-01
  0.68820238E-02  0.85830419E-03 -0.23443119E-02
 -0.90157843E-02  0.90382529E-03 -0.54737961E-02
 -0.74594092E-03 -0.63114381E-02  0.17240787E-02
 -0.77612234E-02  0.89988368E-03 -0.87826782E-02

           1
   2.0000000000000000     
 -0.48609087E+00  0.27203311E-02  0.31214877E-02 -0.48901178E+00
  0.91815046E+00  0.54815114E-01  0.89510852E+00
  0.78274933E+00  0.47564171E+00  0.13856303E-01
  0.78741887E+00  0.25149757E+00  0.73155346E+00
  0.85584988E+00  0.46756653E+00  0.51438691E+00
  0.44173321E-01  0.87782100E-01  0.27346960E+00
  0.24252042E+00  0.25795998E+00  0.50307050E+00
  0.81828292E+00  0.18804903E+00  0.21974274E+00
  0.22606745E+00  0.14034586E-01  0.48560351E+00
  0.74091974E+00  0.28394008E+00  0.98227475E+00
  0.43678861E+00  0.19975435E+00  0.64256172E+00
  0.23765170E+00  0.28672489E+00  0.98437109E+00
  0.26608584E+00  0.43415609E-01  0.91828848E-02
  0.76551787E+00  0.26377009E+00  0.46080063E+00
  0.22488773E+00  0.25948564E+00  0.25365414E+00
  0.33795929E-01  0.42895027E+00  0.18168808E+00
  0.53249952E+00  0.26553226E+00  0.39916642E+00
  0.28957038E+00  0.51410671E+00  0.76193579E+00
  0.62662069E-01  0.45627703E+00  0.71022718E+00
  0.32661817E+00  0.47124685E+00  0.24401287E+00
  0.22098681E+00  0.21725260E+00  0.78155024E+00
  0.50884779E+00  0.19306673E+00  0.18063201E+00
  0.71329483E+00  0.26001918E-01  0.75225745E+00
  0.54946815E+00  0.28212536E+00  0.84400929E+00
  0.69403511E+00  0.99820818E+00  0.24180717E+00
  0.90899043E+00  0.58442353E+00  0.85250186E+00
  0.74843379E+00  0.93560947E+00  0.21252374E-01
  0.81058800E+00  0.76081439E+00  0.74303735E+00
  0.72206800E+00  0.96569852E+00  0.52863026E+00
  0.92824546E-02  0.55610665E+00  0.32193299E+00
  0.22644461E+00  0.76323910E+00  0.48793781E+00
  0.80291129E+00  0.73123032E+00  0.25351536E+00
  0.24858023E+00  0.49607045E+00  0.50273445E+00
  0.76931280E+00  0.70835177E+00  0.21111924E-02
  0.45526320E+00  0.70852869E+00  0.65422213E+00
  0.24592264E+00  0.81083654E+00  0.97590383E+00
  0.24197416E+00  0.58840737E+00  0.98286307E+00
  0.77278945E+00  0.71654925E+00  0.51030228E+00
  0.17141859E+00  0.74923258E+00  0.24803927E+00
  0.33854532E-02  0.94601525E+00  0.16954765E+00
  0.54476454E+00  0.78400398E+00  0.37317160E+00
  0.34427530E+00  0.62086135E-02  0.76431059E+00
  0.26593797E-02  0.98300153E+00  0.72371698E+00
  0.29245817E+00  0.97802112E-02  0.24489917E+00
  0.21114807E+00  0.74842949E+00  0.76689522E+00
  0.40997702E+00  0.69268397E+00  0.17398032E+00
  0.66566110E+00  0.50930133E+00  0.72747642E+00
  0.55542200E+00  0.78513736E+00  0.80772926E+00
  0.64490478E+00  0.49526670E+00  0.25397097E+00
  0.99447856E+00  0.17589834E+00  0.49506618E-01
  0.99905463E+00  0.16707250E+00  0.58186940E+00
  0.48902825E+00  0.66659038E-01  0.40986054E+00
  0.46572497E+00  0.40979085E+00  0.57205967E+00
  0.52581243E+00  0.67215456E-01  0.94945475E+00
  0.49148159E+00  0.40821128E+00  0.73109477E-01
  0.10282386E-01  0.33694713E+00  0.40469037E+00
  0.97899528E+00  0.35254983E+00  0.91123910E+00
  0.21849002E-01  0.65878162E+00  0.78512885E-01
  0.33332387E-01  0.66834798E+00  0.57724167E+00
  0.51917304E+00  0.57810211E+00  0.43506300E+00
  0.47458487E+00  0.89542804E+00  0.57145159E+00
  0.52563890E+00  0.57764249E+00  0.93499330E+00
  0.50510212E+00  0.89476002E+00  0.87276032E-01
  0.97419521E+00  0.84311527E+00  0.43924891E+00
  0.99436006E+00  0.84772020E+00  0.92860237E+00
  0.39139325E+00  0.14895078E+00  0.86085502E+00
  0.15583709E+00  0.12608397E+00  0.11462898E+00
  0.34402050E+00  0.15247682E+00  0.38037141E+00
  0.11539035E+00  0.45622247E+00  0.91046634E+00
  0.93567855E+00  0.30596069E+00  0.79556962E-01
  0.64726824E+00  0.34708444E+00  0.14315768E+00
  0.86417072E+00  0.40730546E+00  0.34855833E+00
  0.15051718E+00  0.41313700E+00  0.34622247E+00
  0.30844064E+00  0.37689591E+00  0.65995911E+00
  0.51847599E+00  0.42248373E+00  0.91589006E+00
  0.67133622E+00  0.13166767E+00  0.87683869E+00
  0.86472368E+00  0.76976191E-01  0.95518980E-01
  0.17936095E+00  0.12462965E+00  0.63393770E+00
  0.60888240E-02  0.18911615E+00  0.41275631E+00
  0.61334830E+00  0.32671430E+00  0.61322308E+00
  0.55099919E+00  0.35328863E-01  0.10924593E+00
  0.65197890E+00  0.13138469E+00  0.34532309E+00
  0.84136938E+00  0.11588427E+00  0.63203829E+00
  0.16708355E-01  0.32581510E+00  0.56585355E+00
  0.99684197E+00  0.21810765E+00  0.85498944E+00
  0.84491587E+00  0.39957064E+00  0.80973740E+00
  0.52475927E+00  0.47176779E-01  0.56858030E+00
  0.35598079E+00  0.33325905E+00  0.13231642E+00
  0.46464484E+00  0.43950060E+00  0.39638685E+00
  0.40115649E+00  0.66692248E+00  0.84159299E+00
  0.15733615E+00  0.58781680E+00  0.16167497E+00
  0.37106032E+00  0.65755471E+00  0.38084058E+00
  0.10688634E+00  0.96826142E+00  0.88114801E+00
  0.98409645E+00  0.79279303E+00  0.97386290E-01
  0.62832595E+00  0.79229500E+00  0.14683863E+00
  0.80262203E+00  0.87295902E+00  0.35526786E+00
  0.10815707E+00  0.92747565E+00  0.35557932E+00
  0.31764078E+00  0.86948765E+00  0.65298710E+00
  0.47857993E+00  0.92988433E+00  0.91350942E+00
  0.67682629E+00  0.63725017E+00  0.86114664E+00
  0.86782284E+00  0.59012423E+00  0.13592059E+00
  0.17710550E+00  0.62346581E+00  0.64727482E+00
  0.37687131E-04  0.70439701E+00  0.40152500E+00
  0.63210395E+00  0.81292078E+00  0.61512698E+00
  0.48133877E+00  0.55710845E+00  0.94417971E-01
  0.68144168E+00  0.62577493E+00  0.38319241E+00
  0.88864687E+00  0.59540209E+00  0.63937880E+00
  0.98228198E+00  0.81203000E+00  0.60501630E+00
  0.63604708E-01  0.70355917E+00  0.91378615E+00
  0.82733011E+00  0.88443674E+00  0.85893505E+00
  0.50418341E+00  0.55042201E+00  0.61066957E+00
  0.32733457E+00  0.88589648E+00  0.13300172E+00
  0.45450959E+00  0.92771134E+00  0.39085679E+00
  0.00000000E+00  0.00000000E+00  0.00000000E+00
  0.00000000E+00  0.00000000E+00  0.00000000E+00
  0.00000000E+00  0.00000000E+00  0.00000000E+00
  0.00000000E+00  0.00000000E+00  0.00000000E+00
  0.00000000E+00  0.00000000E+00  0.00000000E+00
  0.00000000E+00  0.00000000E+00  0.00000000E+00
  0.00000000E+00  0.00000000E+00  0.00000000E+00
  0.00000000E+00  0.00000000E+00  0.00000000E+00
  0.00000000E+00  0.00000000E+00  0.00000000E+00
  0.00000000E+00  0.00000000E+00  0.00000000E+00
  0.00000000E+00  0.00000000E+00  0.00000000E+00
  0.00000000E+00  0.00000000E+00  0.00000000E+00
  0.00000000E+00  0.00000000E+00  0.00000000E+00
  0.00000000E+00  0.00000000E+00  0.00000000E+00
  0.00000000E+00  0.00000000E+00  0.00000000E+00
  0.00000000E+00  0.00000000E+00  0.00000000E+00
  0.00000000E+00  0.00000000E+00  0.00000000E+00
  0.00000000E+00  0.00000000E+00  0.00000000E+00
  0.00000000E+00  0.00000000E+00  0.00000000E+00
  0.00000000E+00  0.00000000E+00  0.00000000E+00
  0.00000000E+00  0.00000000E+00  0.00000000E+00
  0.00000000E+00  0.00000000E+00  0.00000000E+00
  0.00000000E+00  0.00000000E+00  0.00000000E+00
  0.00000000E+00  0.00000000E+00  0.00000000E+00
  0.00000000E+00  0.00000000E+00  0.00000000E+00
  0.00000000E+00  0.00000000E+00  0.00000000E+00
  0.00000000E+00  0.00000000E+00  0.00000000E+00
  0.00000000E+00  0.00000000E+00  0.00000000E+00
  0.00000000E+00  0.00000000E+00  0.00000000E+00
  0.00000000E+00  0.00000000E+00  0.00000000E+00
  0.00000000E+00  0.00000000E+00  0.00000000E+00
  0.00000000E+00  0.00000000E+00  0.00000000E+00
  0.00000000E+00  0.00000000E+00  0.00000000E+00
  0.00000000E+00  0.00000000E+00  0.00000000E+00
  0.00000000E+00  0.00000000E+00  0.00000000E+00
  0.00000000E+00  0.00000000E+00  0.00000000E+00
  0.00000000E+00  0.00000000E+00  0.00000000E+00
  0.00000000E+00  0.00000000E+00  0.00000000E+00
  0.00000000E+00  0.00000000E+00  0.00000000E+00
  0.00000000E+00  0.00000000E+00  0.00000000E+00
  0.00000000E+00  0.00000000E+00  0.00000000E+00
  0.00000000E+00  0.00000000E+00  0.00000000E+00
  0.00000000E+00  0.00000000E+00  0.00000000E+00
  0.00000000E+00  0.00000000E+00  0.00000000E+00
  0.00000000E+00  0.00000000E+00  0.00000000E+00
  0.00000000E+00  0.00000000E+00  0.00000000E+00
  0.00000000E+00  0.00000000E+00  0.00000000E+00
  0.00000000E+00  0.00000000E+00  0.00000000E+00
  0.00000000E+00  0.00000000E+00  0.00000000E+00
  0.00000000E+00  0.00000000E+00  0.00000000E+00
  0.00000000E+00  0.00000000E+00  0.00000000E+00
  0.00000000E+00  0.00000000E+00  0.00000000E+00
  0.00000000E+00  0.00000000E+00  0.00000000E+00
  0.00000000E+00  0.00000000E+00  0.00000000E+00
  0.00000000E+00  0.00000000E+00  0.00000000E+00
  0.00000000E+00  0.00000000E+00  0.00000000E+00
  0.00000000E+00  0.00000000E+00  0.00000000E+00
  0.00000000E+00  0.00000000E+00  0.00000000E+00
  0.00000000E+00  0.00000000E+00  0.00000000E+00
  0.00000000E+00  0.00000000E+00  0.00000000E+00
  0.00000000E+00  0.00000000E+00  0.00000000E+00
  0.00000000E+00  0.00000000E+00  0.00000000E+00
  0.00000000E+00  0.00000000E+00  0.00000000E+00
  0.00000000E+00  0.00000000E+00  0.00000000E+00
  0.00000000E+00  0.00000000E+00  0.00000000E+00
  0.00000000E+00  0.00000000E+00  0.00000000E+00
  0.00000000E+00  0.00000000E+00  0.00000000E+00
  0.00000000E+00  0.00000000E+00  0.00000000E+00
  0.00000000E+00  0.00000000E+00  0.00000000E+00
  0.00000000E+00  0.00000000E+00  0.00000000E+00
  0.00000000E+00  0.00000000E+00  0.00000000E+00
  0.00000000E+00  0.00000000E+00  0.00000000E+00
  0.00000000E+00  0.00000000E+00  0.00000000E+00
  0.00000000E+00  0.00000000E+00  0.00000000E+00
  0.00000000E+00  0.00000000E+00  0.00000000E+00
  0.00000000E+00  0.00000000E+00  0.00000000E+00
  0.00000000E+00  0.00000000E+00  0.00000000E+00
  0.00000000E+00  0.00000000E+00  0.00000000E+00
  0.00000000E+00  0.00000000E+00  0.00000000E+00
  0.00000000E+00  0.00000000E+00  0.00000000E+00
  0.00000000E+00  0.00000000E+00  0.00000000E+00
  0.00000000E+00  0.00000000E+00  0.00000000E+00
  0.00000000E+00  0.00000000E+00  0.00000000E+00
  0.00000000E+00  0.00000000E+00  0.00000000E+00
  0.00000000E+00  0.00000000E+00  0.00000000E+00
  0.00000000E+00  0.00000000E+00  0.00000000E+00
  0.00000000E+00  0.00000000E+00  0.00000000E+00
  0.00000000E+00  0.00000000E+00  0.00000000E+00
  0.00000000E+00  0.00000000E+00  0.00000000E+00
  0.00000000E+00  0.00000000E+00  0.00000000E+00
  0.00000000E+00  0.00000000E+00  0.00000000E+00
  0.00000000E+00  0.00000000E+00  0.00000000E+00
  0.00000000E+00  0.00000000E+00  0.00000000E+00
  0.00000000E+00  0.00000000E+00  0.00000000E+00
  0.00000000E+00  0.00000000E+00  0.00000000E+00
  0.00000000E+00  0.00000000E+00  0.00000000E+00
  0.00000000E+00  0.00000000E+00  0.00000000E+00
  0.00000000E+00  0.00000000E+00  0.00000000E+00
  0.00000000E+00  0.00000000E+00  0.00000000E+00
  0.00000000E+00  0.00000000E+00  0.00000000E+00
  0.00000000E+00  0.00000000E+00  0.00000000E+00
  0.00000000E+00  0.00000000E+00  0.00000000E+00
  0.00000000E+00  0.00000000E+00  0.00000000E+00
  0.00000000E+00  0.00000000E+00  0.00000000E+00
  0.00000000E+00  0.00000000E+00  0.00000000E+00
  0.00000000E+00  0.00000000E+00  0.00000000E+00
  0.00000000E+00  0.00000000E+00  0.00000000E+00
  0.00000000E+00  0.00000000E+00  0.00000000E+00
  0.00000000E+00  0.00000000E+00  0.00000000E+00
  0.00000000E+00  0.00000000E+00  0.00000000E+00
  0.00000000E+00  0.00000000E+00  0.00000000E+00
  0.00000000E+00  0.00000000E+00  0.00000000E+00
  0.00000000E+00  0.00000000E+00  0.00000000E+00
  0.00000000E+00  0.00000000E+00  0.00000000E+00
  0.00000000E+00  0.00000000E+00  0.00000000E+00
  0.00000000E+00  0.00000000E+00  0.00000000E+00
  0.00000000E+00  0.00000000E+00  0.00000000E+00
  0.00000000E+00  0.00000000E+00  0.00000000E+00
  0.00000000E+00  0.00000000E+00  0.00000000E+00
  0.00000000E+00  0.00000000E+00  0.00000000E+00
  0.00000000E+00  0.00000000E+00  0.00000000E+00
  0.00000000E+00  0.00000000E+00  0.00000000E+00
  0.00000000E+00  0.00000000E+00  0.00000000E+00
  0.00000000E+00  0.00000000E+00  0.00000000E+00
  0.00000000E+00  0.00000000E+00  0.00000000E+00
  0.00000000E+00  0.00000000E+00  0.00000000E+00
  0.00000000E+00  0.00000000E+00  0.00000000E+00
  0.00000000E+00  0.00000000E+00  0.00000000E+00
  0.00000000E+00  0.00000000E+00  0.00000000E+00
  0.00000000E+00  0.00000000E+00  0.00000000E+00
  0.00000000E+00  0.00000000E+00  0.00000000E+00
  0.00000000E+00  0.00000000E+00  0.00000000E+00
  0.00000000E+00  0.00000000E+00  0.00000000E+00
  0.00000000E+00  0.00000000E+00  0.00000000E+00
  0.00000000E+00  0.00000000E+00  0.00000000E+00
  0.00000000E+00  0.00000000E+00  0.00000000E+00
  0.00000000E+00  0.00000000E+00  0.00000000E+00
  0.00000000E+00  0.00000000E+00  0.00000000E+00
  0.00000000E+00  0.00000000E+00  0.00000000E+00
  0.00000000E+00  0.00000000E+00  0.00000000E+00
  0.00000000E+00  0.00000000E+00  0.00000000E+00
  0.00000000E+00  0.00000000E+00  0.00000000E+00
  0.00000000E+00  0.00000000E+00  0.00000000E+00
  0.00000000E+00  0.00000000E+00  0.00000000E+00
  0.00000000E+00  0.00000000E+00  0.00000000E+00
  0.00000000E+00  0.00000000E+00  0.00000000E+00
  0.00000000E+00  0.00000000E+00  0.00000000E+00
  0.00000000E+00  0.00000000E+00  0.00000000E+00
  0.00000000E+00  0.00000000E+00  0.00000000E+00
  0.00000000E+00  0.00000000E+00  0.00000000E+00
  0.00000000E+00  0.00000000E+00  0.00000000E+00
  0.00000000E+00  0.00000000E+00  0.00000000E+00
  0.00000000E+00  0.00000000E+00  0.00000000E+00
  0.00000000E+00  0.00000000E+00  0.00000000E+00
  0.00000000E+00  0.00000000E+00  0.00000000E+00
  0.00000000E+00  0.00000000E+00  0.00000000E+00
  0.00000000E+00  0.00000000E+00  0.00000000E+00
  0.00000000E+00  0.00000000E+00  0.00000000E+00
  0.00000000E+00  0.00000000E+00  0.00000000E+00
  0.00000000E+00  0.00000000E+00  0.00000000E+00
  0.00000000E+00  0.00000000E+00  0.00000000E+00
  0.00000000E+00  0.00000000E+00  0.00000000E+00
  0.00000000E+00  0.00000000E+00  0.00000000E+00
  0.00000000E+00  0.00000000E+00  0.00000000E+00
  0.00000000E+00  0.00000000E+00  0.00000000E+00
  0.00000000E+00  0.00000000E+00  0.00000000E+00
  0.00000000E+00  0.00000000E+00  0.00000000E+00
  0.00000000E+00  0.00000000E+00  0.00000000E+00
  0.00000000E+00  0.00000000E+00  0.00000000E+00
  0.00000000E+00  0.00000000E+00  0.00000000E+00
  0.00000000E+00  0.00000000E+00  0.00000000E+00
  0.00000000E+00  0.00000000E+00  0.00000000E+00
  0.00000000E+00  0.00000000E+00  0.00000000E+00
  0.00000000E+00  0.00000000E+00  0.00000000E+00
  0.00000000E+00  0.00000000E+00  0.00000000E+00
  0.00000000E+00  0.00000000E+00  0.00000000E+00
  0.00000000E+00  0.00000000E+00  0.00000000E+00
  0.00000000E+00  0.00000000E+00  0.00000000E+00
  0.00000000E+00  0.00000000E+00  0.00000000E+00
  0.00000000E+00  0.00000000E+00  0.00000000E+00
  0.00000000E+00  0.00000000E+00  0.00000000E+00
  0.00000000E+00  0.00000000E+00  0.00000000E+00
  0.00000000E+00  0.00000000E+00  0.00000000E+00
  0.00000000E+00  0.00000000E+00  0.00000000E+00
  0.00000000E+00  0.00000000E+00  0.00000000E+00
  0.00000000E+00  0.00000000E+00  0.00000000E+00
  0.00000000E+00  0.00000000E+00  0.00000000E+00
  0.00000000E+00  0.00000000E+00  0.00000000E+00
  0.00000000E+00  0.00000000E+00  0.00000000E+00
  0.00000000E+00  0.00000000E+00  0.00000000E+00
  0.00000000E+00  0.00000000E+00  0.00000000E+00
  0.00000000E+00  0.00000000E+00  0.00000000E+00
  0.00000000E+00  0.00000000E+00  0.00000000E+00
  0.00000000E+00  0.00000000E+00  0.00000000E+00
  0.00000000E+00  0.00000000E+00  0.00000000E+00
  0.00000000E+00  0.00000000E+00  0.00000000E+00
  0.00000000E+00  0.00000000E+00  0.00000000E+00
  0.00000000E+00  0.00000000E+00  0.00000000E+00
  0.00000000E+00  0.00000000E+00  0.00000000E+00
  0.00000000E+00  0.00000000E+00  0.00000000E+00
  0.00000000E+00  0.00000000E+00  0.00000000E+00
  0.00000000E+00  0.00000000E+00  0.00000000E+00
  0.00000000E+00  0.00000000E+00  0.00000000E+00
  0.00000000E+00  0.00000000E+00  0.00000000E+00
  0.00000000E+00  0.00000000E+00  0.00000000E+00
  0.00000000E+00  0.00000000E+00  0.00000000E+00
  0.00000000E+00  0.00000000E+00  0.00000000E+00
  0.00000000E+00  0.00000000E+00  0.00000000E+00
  0.00000000E+00  0.00000000E+00  0.00000000E+00
  0.00000000E+00  0.00000000E+00  0.00000000E+00
  0.00000000E+00  0.00000000E+00  0.00000000E+00
  0.00000000E+00  0.00000000E+00  0.00000000E+00
  0.00000000E+00  0.00000000E+00  0.00000000E+00
  0.00000000E+00  0.00000000E+00  0.00000000E+00
  0.00000000E+00  0.00000000E+00  0.00000000E+00
  0.00000000E+00  0.00000000E+00  0.00000000E+00
  0.00000000E+00  0.00000000E+00  0.00000000E+00
  0.00000000E+00  0.00000000E+00  0.00000000E+00
  0.00000000E+00  0.00000000E+00  0.00000000E+00
  0.00000000E+00  0.00000000E+00  0.00000000E+00
  0.00000000E+00  0.00000000E+00  0.00000000E+00
  0.00000000E+00  0.00000000E+00  0.00000000E+00
  0.00000000E+00  0.00000000E+00  0.00000000E+00
  0.00000000E+00  0.00000000E+00  0.00000000E+00
