Na24 Al8 S24                            
   1.0000000000000000     
    12.1828203277415312   -0.0000000000000000    0.0000000000000007
    -0.0000000000000010   15.1349386410830835    2.3941278804312205
     0.0000000000000000    0.0113082934473333   13.7304524371335805
   Na   Al   S 
    48    16    48
Direct
  1.0235986917579900  0.0707789548514916  0.7792675736055438
  0.7649692775847160  0.4494380530769050  0.0246574842636545
  0.7720737058358241  0.2609054054661111  0.7426173251046043
  0.7271530733944159  0.4541505531171484  0.5131009477727130
  0.9235318108401501  0.0541260553268134  0.3804164850397630
  0.2381203108333549  0.2869362161408904  0.5044151142811693
  0.8124888160776911  0.2557970691229827  0.2345031232463620
  0.2361627957536824  0.0668177305530318  0.4635381988650312
  0.7228932712854113  0.2190711598782208  0.0114593438725737
  0.4357325662849604  0.2042439350706996  0.6377860432275875
  0.2400405212726601  0.2230614720739653  0.9909222312868343
  0.2414669711598623  0.0030681762910905  0.9728523636763924
  0.7391674026268303  0.1953498794520921  0.5319619564755820
  0.1780014648991254  0.2358077438537355  0.2431020096068769
  0.0065324870609913  0.4723720362913963  0.1950778471988111
  0.5829603820150026  0.2948920973323232  0.3792011170792755
  0.3818464609013567  0.5131096514991007  0.7541918385439176
  0.0306121170184552  0.4435548415466783  0.6218646141259587
  0.2935599704067307  0.4567476201704752  0.2618557548514766
  0.1156520856846091  0.2394794626590682  0.7536952162896001
  0.4527954378921490  0.1933683179507466  0.2087777189695284
  0.7277708725558105  0.0048561160231666  0.7407561718652531
  0.5094911449291066  0.3030890353148666  0.8070303069849440
  0.6704347369697901 -0.0190081481375453  0.2591667373153222
  0.9734931416109415  0.5477969084741569  0.8235837605532526
  0.8274194610293131  1.0190515049775253 -0.0040064558441367
  0.8074207170783197  0.7559739055323716  0.7586897357661474
  0.7507046720832559  0.9453066324128091  0.5013708065862630
  0.9189270002948459  0.5662575231820035  0.3662627770106774
  0.2116197821481907  0.7919567974128828  0.4986541527873437
  0.8259648713546103  0.7387113984461747  0.2464647198352746
  0.2513836118370411  0.5342126231470786  0.5022748011383609
  0.7830933605078059  0.7465122968487560  0.0053678358295297
  0.4244662362034847  0.7046058091957456  0.6073007913468674
  0.2909465643487717  0.7975984407004525  0.9540473698648945
  0.2425133728821159  0.5113874345314599  0.9600582566477449
  0.7537922445896410  0.7211522918731706  0.5024249530313302
  0.2757763914156366  0.7195700307548111  0.2162892000828951
  0.0047859771866842  0.9690607583347953  0.2141475238773353
  0.5626425057143849  0.8001590548182925  0.3427215497058368
  0.3323158590106438  1.0069450544872158  0.7348657242262027
  0.0319757422750878  0.9497416483332239  0.6450445688282244
  0.3297692401428216  0.9878288219214860  0.2356342889155678
  0.1667362994014170  0.7484158082541963  0.7628287291866508
  0.5055771472222325  0.6955757847161803  0.1959267510084799
  0.7027686274314829  0.5009613967644119  0.8105645008854838
  0.5449681955091172  0.8150545221169571  0.7932803807102941
  0.6811316826908983  0.5287880098900324  0.2063242844217637
  0.0037608690555340  0.1633817210492202  0.0994324743985788
 -0.0008689956210549  0.1669474546456002  0.5586292789600367
  0.5207853341336945  0.0904991918002357  0.4439910803919265
  0.4709096640868190  0.4274164487434007  0.5659020471719266
  0.5155891502656565  0.0996116447450249  0.9050455423259746
  0.4935159201951161  0.3965078236601315  0.0922946291542012
  0.9626241437327790  0.3509979806885228  0.4172434989867830
  1.0058671498222540  0.3228790508107187  0.9370083973840025
  0.0269071280411969  0.6666493396400736  0.0866912152453085
  0.0083713060320796  0.6477666701704593  0.5675739511055329
  0.5092534779291920  0.6041247435408944  0.4487145206266704
  0.4749239222820423  0.9084931237838109  0.5543270982642755
  0.5124556399589328  0.5886426822310782  0.9318578020191677
  0.4952857275919939  0.9132812188897472  0.0592256311120615
  0.9782162289601923  0.8378114380886079  0.4365000834559616
  0.9998176745812496  0.8451352749748435  0.9437327704241414
  0.3522373040087617  0.1613840760427626  0.8564427425793808
  0.1572575313476508  0.0943838165085016  0.1359694158181997
  0.3930801955542647  0.1896617900204944  0.4128194526195377
  0.1505389261891833  0.3926359175743899  0.8567702578666178
  0.0055889351772748  0.3163106311273215  0.1057160879464793
  0.6369650121713615  0.3236000884147512  0.1427309187300095
  0.8078012588536445  0.3916212019288372  0.3521626693863033
  0.0893770890873033  0.4452128603002657  0.3826199041739485
  0.3086751743752957  0.3783519993937854  0.6260008051618381
  0.5024227335594841  0.4304873626206140  0.9185834606662804
  0.6802653459319080  0.1361270922277148  0.8553079433472420
  0.8629267714450963  0.0949959319425622  0.1674777955187518
  0.1522827180447251  0.1126464620151767  0.6273765257087102
  0.0286925780276411  0.2088491144279833  0.4025555694272964
  0.5997572532021872  0.3187883118263227  0.6008204443557289
  0.5093408554715612  0.0601960801844659  0.0934046394564883
  0.6732660839411879  0.1242828258175358  0.3645865350001284
  0.8692421978102436  0.0575977728290734  0.5750813882587656
  0.9430093681159756  0.2966293960696096  0.6059991014718300
  0.9987459436802033  0.1760407962218692  0.9171095678039454
  0.8563740273308897  0.3822053079675570  0.8732109639306298
  0.5370462710911986  0.0399120020675593  0.6198108137355527
  0.3407270855689599  0.3222931338020492  0.1166862796023425
  0.4521328556968840  0.4694036655107422  0.3916690990668077
  0.3803318427089443  0.6527647218498717  0.8547461069442223
  0.1723288533886733  0.5831673938597410  0.1388289415976554
  0.3875947988696005  0.7187922888521573  0.4027509000122691
  0.1301580373057036  0.9211103892540812  0.8406325420768345
  0.0182088307339921  0.8199974807428749  0.1063510437873215
  0.6305075552420947  0.8467891337665968  0.1305872904926371
  0.8222653841130072  0.8633175224489286  0.3708952149400800
  0.1062995783992751  0.9427975987909960  0.3777367184615921
  0.3319228812847306  0.8597364636099892  0.6393468159064464
  0.4909804638188842  0.9455354111322251  0.8940353767727547
  0.6881111658641463  0.6549490189413549  0.9000058533692327
  0.8804829064368421  0.6021585981581565  0.1519373313002074
  0.1683448371592954  0.6028600687689067  0.6607248957337434
  0.0473408167184883  0.6983251673542421  0.4110269117847107
  0.6342242441656727  0.8212215148874864  0.5916068787275041
  0.5167049889036068  0.5501430597132811  0.1027263304667476
  0.6671001835515995  0.6358006388408065  0.3563296542851974
  0.8531303839898005  0.5717373950502027  0.6025748133489853
  0.9515456514615256  0.7885161818968148  0.6013989289531643
  1.0345515587823575  0.7047048098029721  0.9118287739092650
  0.8283509933979333  0.8952522016927288  0.8878562873843706
  0.5382389792161028  0.5599751072354940  0.6071498578079944
  0.3365182834217825  0.8603702524209708  0.1034576360746648
  0.4764708428098013  0.9620086321240519  0.3912100910744405

  0.69602934E-02 -0.76221068E-02 -0.10591249E-01
 -0.76042953E-02 -0.79741771E-03 -0.48651857E-02
  0.82044984E-03 -0.18590472E-02  0.55173828E-03
 -0.64810926E-02  0.90271343E-02  0.15076042E-02
 -0.19736070E-02 -0.18148446E-02  0.14477217E-02
  0.11197988E-02  0.31493977E-02  0.52187587E-02
 -0.26202408E-02 -0.34072637E-02  0.58578466E-02
  0.71484070E-02 -0.46672632E-02  0.12297660E-01
  0.59999337E-02  0.34729447E-02  0.29116627E-02
  0.36431945E-02  0.30536729E-03 -0.12372925E-01
  0.26411647E-02 -0.94718797E-02 -0.14062347E-01
  0.25958663E-02  0.11238978E-01  0.20986765E-02
  0.53490852E-02 -0.18903575E-02  0.30851469E-02
 -0.31425485E-02  0.88747555E-02 -0.33759839E-02
  0.11316537E-01 -0.16233789E-02  0.70237698E-02
 -0.62106116E-02 -0.55282434E-02 -0.12385692E-01
 -0.25692749E-02 -0.39832884E-02  0.30990303E-02
  0.56263431E-03  0.43268950E-02  0.33111728E-02
 -0.85600697E-02  0.30493133E-02  0.86076759E-02
  0.97399655E-03  0.57465514E-02  0.11907308E-01
  0.25649439E-02 -0.51794402E-02 -0.11265858E-02
  0.53544959E-03  0.50289970E-02 -0.19149797E-02
 -0.27976392E-02  0.91008707E-02 -0.11833994E-01
 -0.42126229E-02  0.91014646E-03 -0.84002119E-02
 -0.11797487E-02  0.60302471E-02  0.12293007E-01
 -0.39127017E-02 -0.19307311E-02 -0.88399508E-02
  0.29041880E-02  0.41136585E-02  0.29734462E-02
 -0.64394707E-02  0.29630885E-02  0.21813931E-02
 -0.26511332E-02  0.14679766E-02 -0.43806979E-02
  0.21473878E-02  0.78193851E-02 -0.97616597E-02
 -0.64125255E-02  0.29862121E-02  0.43849987E-02
 -0.55154392E-02 -0.16450409E-01 -0.26619520E-02
 -0.89091917E-02 -0.57905820E-02  0.25059317E-03
  0.36864848E-02 -0.93802298E-03  0.23256694E-02
 -0.11694784E-01  0.35697006E-03  0.16527292E-02
 -0.28203631E-03  0.40578137E-02  0.26656118E-02
  0.42589753E-02  0.93941355E-02 -0.14946698E-03
  0.22244535E-02  0.52240388E-02 -0.76536543E-02
 -0.53497572E-02 -0.34345264E-02  0.59809990E-02
 -0.20108968E-03 -0.12763146E-02  0.98110224E-02
  0.65743176E-02  0.11645920E-01 -0.30457625E-02
  0.61619759E-02  0.66355566E-02 -0.12357274E-02
 -0.57678192E-03 -0.58170588E-02 -0.53342779E-02
  0.32305477E-02 -0.10062996E-01  0.67705473E-02
 -0.80558924E-02  0.92028100E-02 -0.51505193E-03
 -0.22949191E-02 -0.33565892E-02 -0.50020616E-02
  0.14812300E-02  0.87605257E-04 -0.53644406E-02
  0.50708848E-02  0.44528188E-02  0.15776832E-02
 -0.93213587E-03 -0.93406838E-03  0.12721144E-01
  0.91167447E-02  0.32317672E-02  0.59141632E-02
  0.95360210E-03  0.37179327E-02  0.79394789E-02
 -0.67282087E-02  0.37496313E-02  0.65087607E-02
 -0.32497835E-02 -0.81344895E-03 -0.56522524E-02
 -0.17002065E-02 -0.36710708E-02 -0.83989045E-02
  0.65668065E-02 -0.68461487E-03 -0.10072848E-01
  0.42069254E-02 -0.46631179E-02  0.25008882E-02
 -0.49236452E-02 -0.89503777E-02 -0.42758260E-02
 -0.10987124E-02  0.12506194E-03 -0.78459544E-02
 -0.35357331E-02 -0.74829608E-03 -0.24215020E-02
 -0.27277893E-02 -0.53398109E-02  0.21440927E-02
  0.46848261E-02  0.60629407E-02 -0.13128717E-02
  0.37060013E-02 -0.56967101E-02  0.30576303E-02
 -0.40662370E-02 -0.34314178E-03  0.57823191E-04
  0.76021392E-03 -0.91362608E-02 -0.24918885E-02
 -0.12221257E-02  0.62042640E-02  0.40671793E-02
 -0.29045444E-02  0.70252036E-02  0.22489945E-02
  0.49193334E-02 -0.90958613E-02  0.37665050E-02
  0.24158675E-02  0.74648886E-03 -0.22088916E-02
 -0.13590530E-02  0.62103193E-02  0.24319158E-02
 -0.44137113E-02 -0.28755836E-02 -0.52817762E-02
  0.14333451E-01  0.50497498E-02  0.32011818E-03
  0.58235570E-02  0.44514669E-03  0.11740546E-01
  0.37730378E-02  0.22935302E-02 -0.33430894E-02
  0.21478121E-02  0.29213211E-02 -0.37779342E-02
 -0.25170669E-02  0.17567534E-02 -0.28047174E-02
  0.50010381E-02  0.39017685E-02  0.50672882E-02
  0.20930741E-02  0.12302480E-02  0.11573999E-04
  0.85635975E-02 -0.45845577E-02 -0.27072899E-02
  0.17871552E-02  0.42741385E-02 -0.32690535E-02
 -0.20684568E-02  0.39550833E-02 -0.75345001E-04
  0.70259187E-02  0.21899208E-02  0.66442273E-02
 -0.44612815E-03 -0.30754623E-02  0.69817887E-02
 -0.32311749E-02  0.65451774E-03 -0.82659611E-02
  0.15121479E-02 -0.87298204E-02  0.36197761E-02
 -0.15869537E-02 -0.13634862E-02 -0.60583470E-02
 -0.36425986E-02 -0.30786279E-02  0.39309365E-02
  0.30817893E-03 -0.36574245E-02 -0.17428333E-02
  0.10169696E-02 -0.42304137E-02  0.15206400E-02
  0.65241885E-03  0.54220595E-03  0.10147145E-01
 -0.16238700E-02 -0.11217990E-01 -0.13206078E-01
 -0.22239820E-02  0.40151103E-04 -0.42662917E-02
  0.10056616E-01 -0.36277548E-03  0.18082902E-02
 -0.84998841E-02  0.17417933E-04 -0.92865325E-03
  0.10904471E-01  0.28029184E-03 -0.10063261E-01
  0.93898848E-03  0.23582854E-02 -0.69185338E-02
 -0.78948381E-02  0.59508304E-02 -0.65068650E-02
 -0.92541224E-02  0.12289266E-02 -0.27828112E-02
  0.36434793E-02 -0.44411161E-02  0.48728279E-02
 -0.25277558E-02 -0.29583194E-02  0.13707421E-01
  0.50587169E-02 -0.52270312E-02  0.11574291E-02
 -0.41644753E-02  0.31538240E-02 -0.26908882E-02
 -0.24596179E-02 -0.58218587E-02 -0.89105739E-04
 -0.22949539E-02  0.51250865E-02 -0.26481324E-02
 -0.33359516E-02 -0.85532171E-03  0.24817801E-03
 -0.97324330E-03 -0.91906831E-03 -0.48680417E-02
 -0.20744248E-02 -0.55249285E-03 -0.89497528E-03
  0.11159258E-02 -0.25252194E-02  0.80233263E-02
  0.31740062E-02  0.49913833E-02  0.20506112E-02
 -0.16281889E-02  0.33534325E-03  0.54472838E-02
  0.56244321E-03 -0.51962925E-02 -0.12132665E-02
 -0.19490147E-02 -0.40051636E-02 -0.30338364E-02
 -0.92946160E-02  0.78480251E-03  0.10579964E-01

           1
   2.0000000000000000     
 -0.54797910E+00 -0.11249483E-02 -0.34505725E-02 -0.54569134E+00
  0.24741332E-01  0.69772756E-01  0.77790028E+00
  0.76372091E+00  0.44933319E+00  0.23967097E-01
  0.77220840E+00  0.26065965E+00  0.74274054E+00
  0.72608910E+00  0.45534343E+00  0.51311255E+00
  0.92320781E+00  0.53886045E-01  0.38066921E+00
  0.23830414E+00  0.28735188E+00  0.50510281E+00
  0.81205866E+00  0.25534612E+00  0.23543502E+00
  0.23733632E+00  0.66199558E-01  0.46543728E+00
  0.72387825E+00  0.21952983E+00  0.11803484E-01
  0.43633065E+00  0.20428564E+00  0.63597651E+00
  0.24047411E+00  0.22181118E+00  0.98909190E+00
  0.24189312E+00  0.45533113E-02  0.97289910E+00
  0.74004554E+00  0.19509971E+00  0.53245496E+00
  0.17748557E+00  0.23698101E+00  0.24240568E+00
  0.83902731E-02  0.47215672E+00  0.19613848E+00
  0.58194081E+00  0.29416282E+00  0.37752416E+00
  0.38142467E+00  0.51258288E+00  0.75473510E+00
  0.30704482E-01  0.44412633E+00  0.62224728E+00
  0.29215470E+00  0.45714969E+00  0.26303946E+00
  0.11581198E+00  0.24023764E+00  0.75529745E+00
  0.45321651E+00  0.19268392E+00  0.20873296E+00
  0.72785877E+00  0.55209657E-02  0.74036131E+00
  0.50903187E+00  0.30429311E+00  0.80509660E+00
  0.66974317E+00  0.98111305E+00  0.25792202E+00
  0.97329947E+00  0.54859254E+00  0.82523565E+00
  0.82677713E+00  0.18797298E-01  0.99475023E+00
  0.80789748E+00  0.75651725E+00  0.75902811E+00
  0.74964753E+00  0.94569800E+00  0.50162031E+00
  0.91849178E+00  0.56645201E+00  0.36559077E+00
  0.21197231E+00  0.79299128E+00  0.49705187E+00
  0.82491216E+00  0.73910558E+00  0.24703471E+00
  0.25047817E+00  0.53203880E+00  0.50226610E+00
  0.78163078E+00  0.74574698E+00  0.55377838E-02
  0.42507143E+00  0.70448159E+00  0.60766121E+00
  0.28902668E+00  0.79764544E+00  0.95427991E+00
  0.24246707E+00  0.51192343E+00  0.96035307E+00
  0.75449142E+00  0.72239385E+00  0.50218669E+00
  0.27614157E+00  0.72026128E+00  0.21505383E+00
  0.39077311E-02  0.96860619E+00  0.21509799E+00
  0.56260949E+00  0.79998931E+00  0.34418024E+00
  0.33339514E+00  0.84845316E-02  0.73415364E+00
  0.32987327E-01  0.95061875E+00  0.64471163E+00
  0.32967455E+00  0.98706061E+00  0.23499124E+00
  0.16726664E+00  0.74708513E+00  0.76404696E+00
  0.50425465E+00  0.69679210E+00  0.19563964E+00
  0.70239188E+00  0.50051833E+00  0.80991315E+00
  0.54521136E+00  0.81506668E+00  0.79249687E+00
  0.68196415E+00  0.52937633E+00  0.20645151E+00
  0.36078444E-02  0.16325689E+00  0.10130722E+00
  0.62766024E-03  0.16737393E+00  0.55941638E+00
  0.52094188E+00  0.90989696E-01  0.44506203E+00
  0.46980512E+00  0.42791130E+00  0.56676384E+00
  0.51505565E+00  0.99504753E-01  0.90424086E+00
  0.49323680E+00  0.39602356E+00  0.91155670E-01
  0.96370219E+00  0.35090860E+00  0.41579186E+00
  0.65577823E-02  0.32226249E+00  0.93748019E+00
  0.26098835E-01  0.66546691E+00  0.86274568E-01
  0.81909352E-02  0.64778405E+00  0.56642807E+00
  0.50867303E+00  0.60402611E+00  0.44837900E+00
  0.47447611E+00  0.90778717E+00  0.55476250E+00
  0.51322473E+00  0.58944411E+00  0.93152682E+00
  0.49589413E+00  0.91252800E+00  0.59802347E-01
  0.97754869E+00  0.83776608E+00  0.43651641E+00
  0.99994248E+00  0.84392808E+00  0.94358029E+00
  0.35203667E+00  0.16220360E+00  0.85689228E+00
  0.15678071E+00  0.95312035E-01  0.13613516E+00
  0.39388778E+00  0.18845925E+00  0.41357777E+00
  0.15093553E+00  0.39273482E+00  0.85643126E+00
  0.53658254E-02  0.31713113E+00  0.10592726E+00
  0.63624043E+00  0.32322062E+00  0.14202773E+00
  0.81015432E+00  0.39228855E+00  0.35209294E+00
  0.90333117E-01  0.44527041E+00  0.38432002E+00
  0.30929458E+00  0.37865548E+00  0.62546093E+00
  0.50277533E+00  0.43087386E+00  0.91796577E+00
  0.67985213E+00  0.13635957E+00  0.85485887E+00
  0.86374777E+00  0.95511045E-01  0.16812609E+00
  0.15262633E+00  0.11280905E+00  0.62734986E+00
  0.30098426E-01  0.20824351E+00  0.40226682E+00
  0.60005064E+00  0.31935355E+00  0.60024571E+00
  0.50900129E+00  0.60718799E-01  0.93302520E-01
  0.67441950E+00  0.12457153E+00  0.36550400E+00
  0.86916896E+00  0.57190554E-01  0.57616937E+00
  0.94247892E+00  0.29671680E+00  0.60477983E+00
  0.99899419E+00  0.17488665E+00  0.91783807E+00
  0.85611350E+00  0.38202577E+00  0.87235980E+00
  0.53644828E+00  0.39504697E-01  0.62045442E+00
  0.34077768E+00  0.32180995E+00  0.11651667E+00
  0.45229981E+00  0.46884440E+00  0.39198811E+00
  0.38043895E+00  0.65283528E+00  0.85621185E+00
  0.17206227E+00  0.58168624E+00  0.13716359E+00
  0.38722970E+00  0.71879806E+00  0.40212846E+00
  0.13180899E+00  0.92106225E+00  0.84090433E+00
  0.16813442E-01  0.81999988E+00  0.10621536E+00
  0.63229769E+00  0.84682727E+00  0.12911481E+00
  0.82241953E+00  0.86362995E+00  0.36983297E+00
  0.10500352E+00  0.94358478E+00  0.37665166E+00
  0.33040367E+00  0.85989918E+00  0.63891309E+00
  0.49157860E+00  0.94494793E+00  0.89484760E+00
  0.68769620E+00  0.65455655E+00  0.90207093E+00
  0.88131337E+00  0.60146766E+00  0.15222640E+00
  0.16766117E+00  0.60327718E+00  0.66026021E+00
  0.46937032E-01  0.69755575E+00  0.41114809E+00
  0.63384749E+00  0.82189914E+00  0.59110299E+00
  0.51615734E+00  0.55002999E+00  0.10278220E+00
  0.66694041E+00  0.63567970E+00  0.35564165E+00
  0.85278983E+00  0.57166447E+00  0.60245716E+00
  0.95172885E+00  0.78818157E+00  0.60262596E+00
  0.35072621E-01  0.70536426E+00  0.91201248E+00
  0.82808370E+00  0.89529593E+00  0.88864212E+00
  0.53833131E+00  0.55928849E+00  0.60709285E+00
  0.33619832E+00  0.85984125E+00  0.10310796E+00
  0.47494499E+00  0.96211120E+00  0.39273330E+00
  0.00000000E+00  0.00000000E+00  0.00000000E+00
  0.00000000E+00  0.00000000E+00  0.00000000E+00
  0.00000000E+00  0.00000000E+00  0.00000000E+00
  0.00000000E+00  0.00000000E+00  0.00000000E+00
  0.00000000E+00  0.00000000E+00  0.00000000E+00
  0.00000000E+00  0.00000000E+00  0.00000000E+00
  0.00000000E+00  0.00000000E+00  0.00000000E+00
  0.00000000E+00  0.00000000E+00  0.00000000E+00
  0.00000000E+00  0.00000000E+00  0.00000000E+00
  0.00000000E+00  0.00000000E+00  0.00000000E+00
  0.00000000E+00  0.00000000E+00  0.00000000E+00
  0.00000000E+00  0.00000000E+00  0.00000000E+00
  0.00000000E+00  0.00000000E+00  0.00000000E+00
  0.00000000E+00  0.00000000E+00  0.00000000E+00
  0.00000000E+00  0.00000000E+00  0.00000000E+00
  0.00000000E+00  0.00000000E+00  0.00000000E+00
  0.00000000E+00  0.00000000E+00  0.00000000E+00
  0.00000000E+00  0.00000000E+00  0.00000000E+00
  0.00000000E+00  0.00000000E+00  0.00000000E+00
  0.00000000E+00  0.00000000E+00  0.00000000E+00
  0.00000000E+00  0.00000000E+00  0.00000000E+00
  0.00000000E+00  0.00000000E+00  0.00000000E+00
  0.00000000E+00  0.00000000E+00  0.00000000E+00
  0.00000000E+00  0.00000000E+00  0.00000000E+00
  0.00000000E+00  0.00000000E+00  0.00000000E+00
  0.00000000E+00  0.00000000E+00  0.00000000E+00
  0.00000000E+00  0.00000000E+00  0.00000000E+00
  0.00000000E+00  0.00000000E+00  0.00000000E+00
  0.00000000E+00  0.00000000E+00  0.00000000E+00
  0.00000000E+00  0.00000000E+00  0.00000000E+00
  0.00000000E+00  0.00000000E+00  0.00000000E+00
  0.00000000E+00  0.00000000E+00  0.00000000E+00
  0.00000000E+00  0.00000000E+00  0.00000000E+00
  0.00000000E+00  0.00000000E+00  0.00000000E+00
  0.00000000E+00  0.00000000E+00  0.00000000E+00
  0.00000000E+00  0.00000000E+00  0.00000000E+00
  0.00000000E+00  0.00000000E+00  0.00000000E+00
  0.00000000E+00  0.00000000E+00  0.00000000E+00
  0.00000000E+00  0.00000000E+00  0.00000000E+00
  0.00000000E+00  0.00000000E+00  0.00000000E+00
  0.00000000E+00  0.00000000E+00  0.00000000E+00
  0.00000000E+00  0.00000000E+00  0.00000000E+00
  0.00000000E+00  0.00000000E+00  0.00000000E+00
  0.00000000E+00  0.00000000E+00  0.00000000E+00
  0.00000000E+00  0.00000000E+00  0.00000000E+00
  0.00000000E+00  0.00000000E+00  0.00000000E+00
  0.00000000E+00  0.00000000E+00  0.00000000E+00
  0.00000000E+00  0.00000000E+00  0.00000000E+00
  0.00000000E+00  0.00000000E+00  0.00000000E+00
  0.00000000E+00  0.00000000E+00  0.00000000E+00
  0.00000000E+00  0.00000000E+00  0.00000000E+00
  0.00000000E+00  0.00000000E+00  0.00000000E+00
  0.00000000E+00  0.00000000E+00  0.00000000E+00
  0.00000000E+00  0.00000000E+00  0.00000000E+00
  0.00000000E+00  0.00000000E+00  0.00000000E+00
  0.00000000E+00  0.00000000E+00  0.00000000E+00
  0.00000000E+00  0.00000000E+00  0.00000000E+00
  0.00000000E+00  0.00000000E+00  0.00000000E+00
  0.00000000E+00  0.00000000E+00  0.00000000E+00
  0.00000000E+00  0.00000000E+00  0.00000000E+00
  0.00000000E+00  0.00000000E+00  0.00000000E+00
  0.00000000E+00  0.00000000E+00  0.00000000E+00
  0.00000000E+00  0.00000000E+00  0.00000000E+00
  0.00000000E+00  0.00000000E+00  0.00000000E+00
  0.00000000E+00  0.00000000E+00  0.00000000E+00
  0.00000000E+00  0.00000000E+00  0.00000000E+00
  0.00000000E+00  0.00000000E+00  0.00000000E+00
  0.00000000E+00  0.00000000E+00  0.00000000E+00
  0.00000000E+00  0.00000000E+00  0.00000000E+00
  0.00000000E+00  0.00000000E+00  0.00000000E+00
  0.00000000E+00  0.00000000E+00  0.00000000E+00
  0.00000000E+00  0.00000000E+00  0.00000000E+00
  0.00000000E+00  0.00000000E+00  0.00000000E+00
  0.00000000E+00  0.00000000E+00  0.00000000E+00
  0.00000000E+00  0.00000000E+00  0.00000000E+00
  0.00000000E+00  0.00000000E+00  0.00000000E+00
  0.00000000E+00  0.00000000E+00  0.00000000E+00
  0.00000000E+00  0.00000000E+00  0.00000000E+00
  0.00000000E+00  0.00000000E+00  0.00000000E+00
  0.00000000E+00  0.00000000E+00  0.00000000E+00
  0.00000000E+00  0.00000000E+00  0.00000000E+00
  0.00000000E+00  0.00000000E+00  0.00000000E+00
  0.00000000E+00  0.00000000E+00  0.00000000E+00
  0.00000000E+00  0.00000000E+00  0.00000000E+00
  0.00000000E+00  0.00000000E+00  0.00000000E+00
  0.00000000E+00  0.00000000E+00  0.00000000E+00
  0.00000000E+00  0.00000000E+00  0.00000000E+00
  0.00000000E+00  0.00000000E+00  0.00000000E+00
  0.00000000E+00  0.00000000E+00  0.00000000E+00
  0.00000000E+00  0.00000000E+00  0.00000000E+00
  0.00000000E+00  0.00000000E+00  0.00000000E+00
  0.00000000E+00  0.00000000E+00  0.00000000E+00
  0.00000000E+00  0.00000000E+00  0.00000000E+00
  0.00000000E+00  0.00000000E+00  0.00000000E+00
  0.00000000E+00  0.00000000E+00  0.00000000E+00
  0.00000000E+00  0.00000000E+00  0.00000000E+00
  0.00000000E+00  0.00000000E+00  0.00000000E+00
  0.00000000E+00  0.00000000E+00  0.00000000E+00
  0.00000000E+00  0.00000000E+00  0.00000000E+00
  0.00000000E+00  0.00000000E+00  0.00000000E+00
  0.00000000E+00  0.00000000E+00  0.00000000E+00
  0.00000000E+00  0.00000000E+00  0.00000000E+00
  0.00000000E+00  0.00000000E+00  0.00000000E+00
  0.00000000E+00  0.00000000E+00  0.00000000E+00
  0.00000000E+00  0.00000000E+00  0.00000000E+00
  0.00000000E+00  0.00000000E+00  0.00000000E+00
  0.00000000E+00  0.00000000E+00  0.00000000E+00
  0.00000000E+00  0.00000000E+00  0.00000000E+00
  0.00000000E+00  0.00000000E+00  0.00000000E+00
  0.00000000E+00  0.00000000E+00  0.00000000E+00
  0.00000000E+00  0.00000000E+00  0.00000000E+00
  0.00000000E+00  0.00000000E+00  0.00000000E+00
  0.00000000E+00  0.00000000E+00  0.00000000E+00
  0.00000000E+00  0.00000000E+00  0.00000000E+00
  0.00000000E+00  0.00000000E+00  0.00000000E+00
  0.00000000E+00  0.00000000E+00  0.00000000E+00
  0.00000000E+00  0.00000000E+00  0.00000000E+00
  0.00000000E+00  0.00000000E+00  0.00000000E+00
  0.00000000E+00  0.00000000E+00  0.00000000E+00
  0.00000000E+00  0.00000000E+00  0.00000000E+00
  0.00000000E+00  0.00000000E+00  0.00000000E+00
  0.00000000E+00  0.00000000E+00  0.00000000E+00
  0.00000000E+00  0.00000000E+00  0.00000000E+00
  0.00000000E+00  0.00000000E+00  0.00000000E+00
  0.00000000E+00  0.00000000E+00  0.00000000E+00
  0.00000000E+00  0.00000000E+00  0.00000000E+00
  0.00000000E+00  0.00000000E+00  0.00000000E+00
  0.00000000E+00  0.00000000E+00  0.00000000E+00
  0.00000000E+00  0.00000000E+00  0.00000000E+00
  0.00000000E+00  0.00000000E+00  0.00000000E+00
  0.00000000E+00  0.00000000E+00  0.00000000E+00
  0.00000000E+00  0.00000000E+00  0.00000000E+00
  0.00000000E+00  0.00000000E+00  0.00000000E+00
  0.00000000E+00  0.00000000E+00  0.00000000E+00
  0.00000000E+00  0.00000000E+00  0.00000000E+00
  0.00000000E+00  0.00000000E+00  0.00000000E+00
  0.00000000E+00  0.00000000E+00  0.00000000E+00
  0.00000000E+00  0.00000000E+00  0.00000000E+00
  0.00000000E+00  0.00000000E+00  0.00000000E+00
  0.00000000E+00  0.00000000E+00  0.00000000E+00
  0.00000000E+00  0.00000000E+00  0.00000000E+00
  0.00000000E+00  0.00000000E+00  0.00000000E+00
  0.00000000E+00  0.00000000E+00  0.00000000E+00
  0.00000000E+00  0.00000000E+00  0.00000000E+00
  0.00000000E+00  0.00000000E+00  0.00000000E+00
  0.00000000E+00  0.00000000E+00  0.00000000E+00
  0.00000000E+00  0.00000000E+00  0.00000000E+00
  0.00000000E+00  0.00000000E+00  0.00000000E+00
  0.00000000E+00  0.00000000E+00  0.00000000E+00
  0.00000000E+00  0.00000000E+00  0.00000000E+00
  0.00000000E+00  0.00000000E+00  0.00000000E+00
  0.00000000E+00  0.00000000E+00  0.00000000E+00
  0.00000000E+00  0.00000000E+00  0.00000000E+00
  0.00000000E+00  0.00000000E+00  0.00000000E+00
  0.00000000E+00  0.00000000E+00  0.00000000E+00
  0.00000000E+00  0.00000000E+00  0.00000000E+00
  0.00000000E+00  0.00000000E+00  0.00000000E+00
  0.00000000E+00  0.00000000E+00  0.00000000E+00
  0.00000000E+00  0.00000000E+00  0.00000000E+00
  0.00000000E+00  0.00000000E+00  0.00000000E+00
  0.00000000E+00  0.00000000E+00  0.00000000E+00
  0.00000000E+00  0.00000000E+00  0.00000000E+00
  0.00000000E+00  0.00000000E+00  0.00000000E+00
  0.00000000E+00  0.00000000E+00  0.00000000E+00
  0.00000000E+00  0.00000000E+00  0.00000000E+00
  0.00000000E+00  0.00000000E+00  0.00000000E+00
  0.00000000E+00  0.00000000E+00  0.00000000E+00
  0.00000000E+00  0.00000000E+00  0.00000000E+00
  0.00000000E+00  0.00000000E+00  0.00000000E+00
  0.00000000E+00  0.00000000E+00  0.00000000E+00
  0.00000000E+00  0.00000000E+00  0.00000000E+00
  0.00000000E+00  0.00000000E+00  0.00000000E+00
  0.00000000E+00  0.00000000E+00  0.00000000E+00
  0.00000000E+00  0.00000000E+00  0.00000000E+00
  0.00000000E+00  0.00000000E+00  0.00000000E+00
  0.00000000E+00  0.00000000E+00  0.00000000E+00
  0.00000000E+00  0.00000000E+00  0.00000000E+00
  0.00000000E+00  0.00000000E+00  0.00000000E+00
  0.00000000E+00  0.00000000E+00  0.00000000E+00
  0.00000000E+00  0.00000000E+00  0.00000000E+00
  0.00000000E+00  0.00000000E+00  0.00000000E+00
  0.00000000E+00  0.00000000E+00  0.00000000E+00
  0.00000000E+00  0.00000000E+00  0.00000000E+00
  0.00000000E+00  0.00000000E+00  0.00000000E+00
  0.00000000E+00  0.00000000E+00  0.00000000E+00
  0.00000000E+00  0.00000000E+00  0.00000000E+00
  0.00000000E+00  0.00000000E+00  0.00000000E+00
  0.00000000E+00  0.00000000E+00  0.00000000E+00
  0.00000000E+00  0.00000000E+00  0.00000000E+00
  0.00000000E+00  0.00000000E+00  0.00000000E+00
  0.00000000E+00  0.00000000E+00  0.00000000E+00
  0.00000000E+00  0.00000000E+00  0.00000000E+00
  0.00000000E+00  0.00000000E+00  0.00000000E+00
  0.00000000E+00  0.00000000E+00  0.00000000E+00
  0.00000000E+00  0.00000000E+00  0.00000000E+00
  0.00000000E+00  0.00000000E+00  0.00000000E+00
  0.00000000E+00  0.00000000E+00  0.00000000E+00
  0.00000000E+00  0.00000000E+00  0.00000000E+00
  0.00000000E+00  0.00000000E+00  0.00000000E+00
  0.00000000E+00  0.00000000E+00  0.00000000E+00
  0.00000000E+00  0.00000000E+00  0.00000000E+00
  0.00000000E+00  0.00000000E+00  0.00000000E+00
  0.00000000E+00  0.00000000E+00  0.00000000E+00
  0.00000000E+00  0.00000000E+00  0.00000000E+00
  0.00000000E+00  0.00000000E+00  0.00000000E+00
  0.00000000E+00  0.00000000E+00  0.00000000E+00
  0.00000000E+00  0.00000000E+00  0.00000000E+00
  0.00000000E+00  0.00000000E+00  0.00000000E+00
  0.00000000E+00  0.00000000E+00  0.00000000E+00
  0.00000000E+00  0.00000000E+00  0.00000000E+00
  0.00000000E+00  0.00000000E+00  0.00000000E+00
  0.00000000E+00  0.00000000E+00  0.00000000E+00
  0.00000000E+00  0.00000000E+00  0.00000000E+00
  0.00000000E+00  0.00000000E+00  0.00000000E+00
  0.00000000E+00  0.00000000E+00  0.00000000E+00
  0.00000000E+00  0.00000000E+00  0.00000000E+00
  0.00000000E+00  0.00000000E+00  0.00000000E+00
  0.00000000E+00  0.00000000E+00  0.00000000E+00
  0.00000000E+00  0.00000000E+00  0.00000000E+00
  0.00000000E+00  0.00000000E+00  0.00000000E+00
  0.00000000E+00  0.00000000E+00  0.00000000E+00
  0.00000000E+00  0.00000000E+00  0.00000000E+00
  0.00000000E+00  0.00000000E+00  0.00000000E+00
  0.00000000E+00  0.00000000E+00  0.00000000E+00
