Na Al S                                 
   1.0000000000000000     
    12.1828203277415312    0.0000000000000000    0.0000000000000007
    -0.0000000000000005    7.5674693205415418    1.1970639402156102
     0.0000000000000000    0.0113082934473333   13.7304524371335805
   Na   Al   S 
    23     8    24
Direct
  0.9758584767053904  0.0326373670902882  0.7960499551783613
  0.8203286633548714  0.7762822139409309  0.9666629861876928
  0.7877203686504402  0.5440676081834823  0.7487318444899458
  0.7330242574816879  0.9197659347200755  0.5379468149044371
  0.9075813913307940  0.0991844854201034  0.3949554723277657
  0.2416656298604067  0.5729201936036930  0.4917983834887494
  0.8121531623995821  0.5057013517582973  0.2673794381856212
  0.2660456066686834  0.0692894573282032  0.4921929066870305
  0.7041572056263803  0.4230188529839864  0.9803906148365868
  0.4149964500494860  0.3881373390946479  0.6387023380857357
  0.2633874037826800  0.5100578489819512  0.9604800983356157
  0.2554935074925098  0.0074234142548804  0.9600552661971804
  0.7598935770566726  0.4144742874859304  0.5383298670210337
  0.1990621699871866  0.4539924425665021  0.2724935174084848
  0.1275413564087415  0.9412596211774016  0.2250625669571633
  0.5854370462142526  0.6057157009368126  0.3793389893222567
  0.3353119208205797  0.0043465872253492  0.7482203748018179
  0.0801447136916877  0.8928361119408876  0.6419761191755526
  0.1749427411592990  0.4932376617524739  0.7494042513756511
  0.4921632116377594  0.4055836633836662  0.2082607832448744
  0.6919363925000326  0.0279508087623057  0.7578896302759475
  0.5197921922842568  0.5856751549951014  0.8002167315006119
  0.6492390689339729  0.9520293201284886  0.2944325285054390
  0.0053815000734474  0.2852496449899817  0.9884575368816044
  0.0180831902925718  0.2998900218703611  0.6016111344437718
  0.5293732483820861  0.1530883557855560  0.4772967624206856
  0.4809096622329534  0.8148944260961102  0.5840951680593633
  0.5282278038844339  0.1722460233680110  0.8872412469094897
  0.5428497015923526  0.8802992019147666  0.0361111960510740
  0.9657191551051412  0.6703301396701278  0.4721992593970157
  0.9787095584872603  0.7335678390014380  0.8416786030508021
  0.3756709890589605  0.3102935822048849  0.8060818147262410
  0.2452197890550778  0.1340556384957168  0.1193261546039324
  0.4091575256169691  0.3648945095926663  0.4534266347218860
  0.1466420569009372  0.8470486365448053  0.7970211035542434
  0.9129200839941234  0.4511934572953678  0.0944780578550493
  0.6375797289793326  0.6982011260547765  0.1615284622948181
  0.7879660390499410  0.7544196920475557  0.4044431397193975
  0.1028464833287543  0.8912735696033280  0.4719450950614501
  0.3151247033586628  0.7407930323288028  0.6370106284487562
  0.5367254235623236  0.9101569233858484  0.8539985456621153
  0.6572955422549427  0.2907434761849217  0.8468015651169765
  0.7677770254560059  0.0875654585614072  0.1430108804552717
  0.1904148124050877  0.2299698657280445  0.6420251111603577
  0.0244198754673306  0.3802511147918466  0.4579545052249898
  0.5998774832279565  0.6142810215104717  0.6176696143352913
  0.5046554311674356  0.1209841123441464  0.0641165890510109
  0.6694900635415593  0.2481909558053061  0.4151180172765905
  0.8908574774112097  0.0986763079803410  0.6194068466022813
  0.9655254649707317  0.6241853537834814  0.6096756894657531
  0.0084299825285825  0.3953256747807785  0.8059882422158182
  0.7825728021076230  0.8404382206699381  0.8356540043878056
  0.5375552971996882  0.0790573346378167  0.6212058444588848
  0.3969812900169458  0.7130167303858030  0.1149274194988124
  0.4798786608419618  0.9019343009543732  0.4432071035085130

             NaN             NaN             NaN
             NaN             NaN             NaN
             NaN             NaN             NaN
             NaN             NaN             NaN
             NaN             NaN             NaN
             NaN             NaN             NaN
             NaN             NaN             NaN
             NaN             NaN             NaN
             NaN             NaN             NaN
             NaN             NaN             NaN
             NaN             NaN             NaN
             NaN             NaN             NaN
             NaN             NaN             NaN
             NaN             NaN             NaN
             NaN             NaN             NaN
             NaN             NaN             NaN
             NaN             NaN             NaN
             NaN             NaN             NaN
             NaN             NaN             NaN
             NaN             NaN             NaN
             NaN             NaN             NaN
             NaN             NaN             NaN
             NaN             NaN             NaN
             NaN             NaN             NaN
             NaN             NaN             NaN
             NaN             NaN             NaN
             NaN             NaN             NaN
             NaN             NaN             NaN
             NaN             NaN             NaN
             NaN             NaN             NaN
             NaN             NaN             NaN
             NaN             NaN             NaN
             NaN             NaN             NaN
             NaN             NaN             NaN
             NaN             NaN             NaN
             NaN             NaN             NaN
             NaN             NaN             NaN
             NaN             NaN             NaN
             NaN             NaN             NaN
             NaN             NaN             NaN
             NaN             NaN             NaN
             NaN             NaN             NaN
             NaN             NaN             NaN
             NaN             NaN             NaN
             NaN             NaN             NaN
             NaN             NaN             NaN
             NaN             NaN             NaN
             NaN             NaN             NaN
             NaN             NaN             NaN
             NaN             NaN             NaN
             NaN             NaN             NaN
             NaN             NaN             NaN
             NaN             NaN             NaN
             NaN             NaN             NaN
             NaN             NaN             NaN
