Na Al S 
 1.0000000000000000
    12.1828203277415312    0.0000000000000000    0.0000000000000007
    -0.0000000000000005    7.5674693205415418    1.1970639402156102
     0.0000000000000000    0.0113082934473333   13.7304524371335805
 Na  Al  S  
  23   8  24
Direct
  0.9324304068158928  0.0705924136487378  0.8681872410073589
  0.7501838598159556  0.2036077517656524 -0.0203654164776311
  0.8489509084700543  0.4953641062965728  0.7780824651732401
  0.7537112188702585  1.0335351040683307  0.4957685168423730
  0.9413764785904819  0.0765819413497577  0.3302949272575159
  0.2386998608510445  0.5430619048338169  0.4813886184725197
  0.8268715924692616  0.5097688514359445  0.2223582518858183
  0.2472574633253786  0.0172218863235084  0.4833025538081122
  0.4843075852540216  0.3798790205134646  0.7203993288058917
  0.2438588974544077  0.5166439161028392  0.9938333889486451
  0.2342252069462904 -0.0118327278974999  0.9962302048717945
  0.8429147248616256  0.3565573286511864  0.4636368164706480
  0.1378380070406969  0.5400788863811985  0.2481241692558346
  0.0264205186178190  0.9223095655632192  0.1764877788395337
  0.5749697934944021  0.6308475474963737  0.3098218195073565
  0.2741641525626590  0.2266115281930937  0.7520099797019767
  0.0449731395834047  0.9187635785922647  0.6721207770460497
  0.3038993829799050  0.2466165929163451  0.2176365559592011
  0.1176142071332315  0.5420986105870431  0.7476303643841989
  0.5185227045714762  0.4372027616541813  0.1590381670661447
  0.6825444729412985 -0.0269172021095990  0.7473571647014728
  0.6023621254043225  0.5392602729208764  0.8881445284223296
  0.6785479515929684  0.0011241916134146  0.2329310538364041
 -0.0111971663290555  0.3395484976782931  0.0646639686562574
 -0.0116267528966018  0.3345817317708810  0.5632232352665034
  0.5109325289794888  0.1400998186469216  0.4226706189989555
  0.4532388613973005  0.9274699825652541  0.5644061815489492
  0.5114298215468250  0.1193625954154549  0.9368578900056200
  0.4938845856318416  0.8420484261192203  0.0666654155016310
  0.9956006223674627  0.6802781669033896  0.4212584973187144
  0.6888744333256001  0.7441914768604087  1.0740013377286532
  0.3619767884636902  0.2697189265751340  0.9284366330454390
  0.1279704904050038  0.1827798634365401  0.0940163494889799
  0.3691751420508692  0.3235147003669671  0.4031799496557631
  0.1390182906770666  0.8060679064552033  0.8616690362572724
 -0.0087224832740553  0.6262201268216010  0.0867011564677215
  0.6486257799342086  0.7111317937140198  0.1299676339276539
  0.8407194514336718  0.7947859344594819  0.3458302880208843
  0.1314928764182050  0.8371848572232072  0.3631816432868870
  0.3128038324494188  0.7521297281931824  0.6247039000480089
  0.4396512707797920  0.9696270436213966  0.8774830616026151
  0.6693117500578172  0.2218709879847786  0.8720359860471707
  0.8713847967208131  0.1770843449162482  0.1465497163376939
  0.1284016640118179  0.1861981644950479  0.5983099305314614
  0.0007538078023719  0.3871753812978345  0.3982433223949197
  0.6218427557296856  0.8911632852227735  0.6843013563774329
  0.5077673485226981  0.1105529260355794  0.0850647523619993
  0.6677008199031461  0.2550441544602844  0.3490299227214247
  0.8735006482208708  0.1373229951484057  0.6329122700357779
  0.6975068540240366  0.5811576524302149  0.5761870873159777
 -0.0141492794173832  0.3734558574967097  0.9088412618805348
  0.8757213009252254  0.8164740482586464  0.8466946179158100
  0.5020207567424887  0.0618048394549272  0.5956886461188733
  0.3302578401771292  0.7425162987929822  0.1164009019026359
  0.4710333107244534  0.9271542242881038  0.3829070772276805
Cartesian
  0.0000000000000000  0.0000000000000000  0.0000000000000000
  0.0000000000000000  0.0000000000000000  0.0000000000000000
  0.0000000000000000  0.0000000000000000  0.0000000000000000
  0.0000000000000000  0.0000000000000000  0.0000000000000000
  0.0000000000000000  0.0000000000000000  0.0000000000000000
  0.0000000000000000  0.0000000000000000  0.0000000000000000
  0.0000000000000000  0.0000000000000000  0.0000000000000000
  0.0000000000000000  0.0000000000000000  0.0000000000000000
  0.0000000000000000  0.0000000000000000  0.0000000000000000
  0.0000000000000000  0.0000000000000000  0.0000000000000000
  0.0000000000000000  0.0000000000000000  0.0000000000000000
  0.0000000000000000  0.0000000000000000  0.0000000000000000
  0.0000000000000000  0.0000000000000000  0.0000000000000000
  0.0000000000000000  0.0000000000000000  0.0000000000000000
  0.0000000000000000  0.0000000000000000  0.0000000000000000
  0.0000000000000000  0.0000000000000000  0.0000000000000000
  0.0000000000000000  0.0000000000000000  0.0000000000000000
  0.0000000000000000  0.0000000000000000  0.0000000000000000
  0.0000000000000000  0.0000000000000000  0.0000000000000000
  0.0000000000000000  0.0000000000000000  0.0000000000000000
  0.0000000000000000  0.0000000000000000  0.0000000000000000
  0.0000000000000000  0.0000000000000000  0.0000000000000000
  0.0000000000000000  0.0000000000000000  0.0000000000000000
  0.0000000000000000  0.0000000000000000  0.0000000000000000
  0.0000000000000000  0.0000000000000000  0.0000000000000000
  0.0000000000000000  0.0000000000000000  0.0000000000000000
  0.0000000000000000  0.0000000000000000  0.0000000000000000
  0.0000000000000000  0.0000000000000000  0.0000000000000000
  0.0000000000000000  0.0000000000000000  0.0000000000000000
  0.0000000000000000  0.0000000000000000  0.0000000000000000
  0.0000000000000000  0.0000000000000000  0.0000000000000000
  0.0000000000000000  0.0000000000000000  0.0000000000000000
  0.0000000000000000  0.0000000000000000  0.0000000000000000
  0.0000000000000000  0.0000000000000000  0.0000000000000000
  0.0000000000000000  0.0000000000000000  0.0000000000000000
  0.0000000000000000  0.0000000000000000  0.0000000000000000
  0.0000000000000000  0.0000000000000000  0.0000000000000000
  0.0000000000000000  0.0000000000000000  0.0000000000000000
  0.0000000000000000  0.0000000000000000  0.0000000000000000
  0.0000000000000000  0.0000000000000000  0.0000000000000000
  0.0000000000000000  0.0000000000000000  0.0000000000000000
  0.0000000000000000  0.0000000000000000  0.0000000000000000
  0.0000000000000000  0.0000000000000000  0.0000000000000000
  0.0000000000000000  0.0000000000000000  0.0000000000000000
  0.0000000000000000  0.0000000000000000  0.0000000000000000
  0.0000000000000000  0.0000000000000000  0.0000000000000000
  0.0000000000000000  0.0000000000000000  0.0000000000000000
  0.0000000000000000  0.0000000000000000  0.0000000000000000
  0.0000000000000000  0.0000000000000000  0.0000000000000000
  0.0000000000000000  0.0000000000000000  0.0000000000000000
  0.0000000000000000  0.0000000000000000  0.0000000000000000
  0.0000000000000000  0.0000000000000000  0.0000000000000000
  0.0000000000000000  0.0000000000000000  0.0000000000000000
  0.0000000000000000  0.0000000000000000  0.0000000000000000
  0.0000000000000000  0.0000000000000000  0.0000000000000000
