Na3AlS3 bottleneck NEB image 03
  1.0
     12.1828203277415312      0.0000000000000000      0.0000000000000007
     -0.0000000000000005      7.5674693205415418      1.1970639402156102
      0.0000000000000000      0.0113082934473333     13.7304524371335805
  Na  Al  S
  23  8  24
Direct
  0.9312867005717189  0.0837422233313525  0.8531297805455237
  0.7718100657362065  0.1599834913621652  0.9241792920312617
  0.7917017317802338  0.6501910278199137  0.6825828870703300
  0.7900025581704940  0.0177965040363279  0.4562117220195537
  0.0363936732607626  0.2196587580526911  0.3791865526893448
  0.1243980269683247  0.5242331077868034  0.4126348942477503
  0.9474279732521685  0.3548217587175331  0.3070531210438237
  0.4015790330656011  0.1795903075689925  0.3377619612843640
  0.4680635359764441  0.4238961758827935  0.6943719974976299
  0.2561107803149802  0.5098341571030587  0.9855489384664532
  0.2417787571136933  0.0065742084025803  0.9854469958921247
  0.7544105968886460  0.4583616792901030  0.5139692011163562
  0.1803482635489223  0.4899500623692112  0.2441104153215606
  0.0302861797667293  0.9114626139374573  0.1779131091165079
  0.5829579543677172  0.6157388418823584  0.3421530002814039
  0.3232975554333734  0.9929810274712650  0.7494017720272128
  0.0550156988544859  0.8991774504423887  0.6716289834791719
  0.3157547376041471  0.9947821458210834  0.2446376242410230
  0.1776828501247213  0.4859039315092352  0.7498935187230155
  0.4715158935861834  0.4189579728513600  0.1839012028846987
  0.6785779186237442  0.0042309666699766  0.7467935104840159
  0.6275415116171139  0.5778454779782514  0.9150278702287192
  0.6761814842292249  0.0145907292108187  0.2364697529478708
  0.0042366131371770  0.3281002594595882  0.0700513649741574
  0.0065222423178961  0.3224607314214052  0.5679195583379689
  0.5052631621490236  0.1769092659597265  0.4255969690536708
  0.4889968592464619  0.8303557903490362  0.5697888261094007
  0.5025992943325548  0.1673870802534720  0.9233782681216802
  0.4914110020853295  0.8333945625125810  0.0725163350665422
  0.9876514571320280  0.6705618263356431  0.4246975892828349
  0.9912038492485716  0.6672180410507551  0.9232874000130694
  0.3486129506175785  0.2912614627647909  0.8584182372935835
  0.1649935106559934  0.2126231212093025  0.1227235219556562
  0.3585817511904007  0.3248577028997853  0.3607642587632808
  0.1431111387644921  0.7971405607748241  0.8558362862023774
  0.9984218492132240  0.6175852868363212  0.0926639771148390
  0.6376647047066986  0.6904942423453767  0.1423300698197465
  0.8265211407095645  0.7745254218141403  0.3645167454104908
  0.1332855079171343  0.8261543692410986  0.3631165084157024
  0.3301090077881541  0.7186588248394683  0.6294303489385425
  0.5012188032502152  0.8747445296974907  0.9036192192786482
  0.6563444337744412  0.2936747093571816  0.8606818387797790
  0.8615566096101275  0.1801621453957120  0.1426138297385264
  0.1656782213781927  0.2154605483801059  0.6280637307942418
  0.0093094574108768  0.3861413740878188  0.3980926743688749
  0.6390026228305621  0.6805680233453557  0.6256514417513356
  0.5000761683201118  0.1243730489044911  0.0930787712840768
  0.6666691314695541  0.2796560020881416  0.3656842108027784
  0.8599103301653364  0.1679602734058101  0.6273669962119771
  0.9856035656032881  0.6087831433826825  0.5942857725467537
  0.9947813938011438  0.3766966913735565  0.9007943339875201
  0.8366577102855184  0.7973462260445091  0.8655309706338508
  0.5054239709823316  0.1188546640261618  0.5951082101794323
  0.3313530367154828  0.7155575322203294  0.1250828603279587
  0.4840012076609059  0.8909482534468084  0.3998036725836773
