Na Al S 
 1.0000000000000000
    12.1828203277415312   -0.0000000000000000    0.0000000000000007
    -0.0000000000000005    7.5674693205415418    1.1970639402156102
     0.0000000000000000    0.0113082934473333   13.7304524371335805
 Na  Al  S  
  23   8  24
Direct
  0.9758584767053893  0.0326373670902909  0.7960499551783632
  0.8203286633548708  0.7762822139409327 -0.0333370138123091
  0.7877203686504393  0.5440676081834830  0.7487318444899492
  0.7330242574816909  0.9197659347200750  0.5379468149044382
  0.9075813913307937  0.0991844854201044  0.3949554723277660
  0.2416656298604061  0.5729201936036961  0.4917983834887518
  0.8121531623995827  0.5057013517582957  0.2673794381856245
  0.2660456066686855  0.0692894573282025  0.4921929066870275
  0.7041572056263790  0.4230188529839843 -0.0196093851634117
  0.4149964500494878  0.3881373390946470  0.6387023380857373
  0.2633874037826773  0.5100578489819493  0.9604800983356127
  0.2554935074925090  0.0074234142548790  0.9600552661971774
  0.7598935770566720  0.4144742874859292  0.5383298670210332
  0.1990621699871869  0.4539924425665031  0.2724935174084879
  0.1275413564087435  0.9412596211773999  0.2250625669571615
  0.5854370462142505  0.6057157009368104  0.3793389893222560
  0.3353119208205793  1.0043465872253476  0.7482203748018214
  0.0801447136916878  0.8928361119408852  0.6419761191755498
  0.1749427411592965  0.4932376617524726  0.7494042513756544
  0.4921632116377623  0.4055836633836643  0.2082607832448713
  0.6919363925000354  0.0279508087623048  0.7578896302759470
  0.5197921922842534  0.5856751549950980  0.8002167315006150
  0.6492390689339702 -0.0479706798715122  0.2944325285054364
  0.0053815000734445  0.2852496449899845 -0.0115424631183952
  0.0180831902925704  0.2998900218703580  0.6016111344437753
  0.5293732483820864  0.1530883557855537  0.4772967624206883
  0.4809096622329548  0.8148944260961113  0.5840951680593621
  0.5282278038844307  0.1722460233680083  0.8872412469094868
  0.5428497015923539  0.8802992019147632  0.0361111960510711
  0.9657191551051445  0.6703301396701249  0.4721992593970185
  0.9787095584872610  0.7335678390014413  0.8416786030508016
  0.3756709890589613  0.3102935822048815  0.8060818147262406
  0.2452197890550806  0.1340556384957174  0.1193261546039338
  0.4091575256169681  0.3648945095926663  0.4534266347218886
  0.1466420569009353  0.8470486365448020  0.7970211035542433
 -0.0870799160058752  0.4511934572953692  0.0944780578550501
  0.6375797289793310  0.6982011260547748  0.1615284622948200
  0.7879660390499444  0.7544196920475544  0.4044431397193947
  0.1028464833287576  0.8912735696033254  0.4719450950614525
  0.3151247033586623  0.7407930323288034  0.6370106284487529
  0.5367254235623207  0.9101569233858471  0.8539985456621173
  0.6572955422549462  0.2907434761849204  0.8468015651169737
  0.7677770254560067  0.0875654585614065  0.1430108804552742
  0.1904148124050887  0.2299698657280425  0.6420251111603611
  0.0244198754673289  0.3802511147918484  0.4579545052249903
  0.5998774832279553  0.6142810215104724  0.6176696143352944
  0.5046554311674391  0.1209841123441452  0.0641165890510125
  0.6694900635415596  0.2481909558053045  0.4151180172765935
  0.8908574774112091  0.0986763079803400  0.6194068466022797
  0.9655254649707332  0.6241853537834819  0.6096756894657539
  1.0084299825285812  0.3953256747807751  0.8059882422158205
  0.7825728021076244  0.8404382206699365  0.8356540043878066
  0.5375552971996896  0.0790573346378179  0.6212058444588845
  0.3969812900169430  0.7130167303858055  0.1149274194988091
  0.4798786608419585  0.9019343009543760  0.4432071035085161
Cartesian
  0.0000000000000000  0.0000000000000000  0.0000000000000000
  0.0000000000000000  0.0000000000000000  0.0000000000000000
  0.0000000000000000  0.0000000000000000  0.0000000000000000
  0.0000000000000000  0.0000000000000000  0.0000000000000000
  0.0000000000000000  0.0000000000000000  0.0000000000000000
  0.0000000000000000  0.0000000000000000  0.0000000000000000
  0.0000000000000000  0.0000000000000000  0.0000000000000000
  0.0000000000000000  0.0000000000000000  0.0000000000000000
  0.0000000000000000  0.0000000000000000  0.0000000000000000
  0.0000000000000000  0.0000000000000000  0.0000000000000000
  0.0000000000000000  0.0000000000000000  0.0000000000000000
  0.0000000000000000  0.0000000000000000  0.0000000000000000
  0.0000000000000000  0.0000000000000000  0.0000000000000000
  0.0000000000000000  0.0000000000000000  0.0000000000000000
  0.0000000000000000  0.0000000000000000  0.0000000000000000
  0.0000000000000000  0.0000000000000000  0.0000000000000000
  0.0000000000000000  0.0000000000000000  0.0000000000000000
  0.0000000000000000  0.0000000000000000  0.0000000000000000
  0.0000000000000000  0.0000000000000000  0.0000000000000000
  0.0000000000000000  0.0000000000000000  0.0000000000000000
  0.0000000000000000  0.0000000000000000  0.0000000000000000
  0.0000000000000000  0.0000000000000000  0.0000000000000000
  0.0000000000000000  0.0000000000000000  0.0000000000000000
  0.0000000000000000  0.0000000000000000  0.0000000000000000
  0.0000000000000000  0.0000000000000000  0.0000000000000000
  0.0000000000000000  0.0000000000000000  0.0000000000000000
  0.0000000000000000  0.0000000000000000  0.0000000000000000
  0.0000000000000000  0.0000000000000000  0.0000000000000000
  0.0000000000000000  0.0000000000000000  0.0000000000000000
  0.0000000000000000  0.0000000000000000  0.0000000000000000
  0.0000000000000000  0.0000000000000000  0.0000000000000000
  0.0000000000000000  0.0000000000000000  0.0000000000000000
  0.0000000000000000  0.0000000000000000  0.0000000000000000
  0.0000000000000000  0.0000000000000000  0.0000000000000000
  0.0000000000000000  0.0000000000000000  0.0000000000000000
  0.0000000000000000  0.0000000000000000  0.0000000000000000
  0.0000000000000000  0.0000000000000000  0.0000000000000000
  0.0000000000000000  0.0000000000000000  0.0000000000000000
  0.0000000000000000  0.0000000000000000  0.0000000000000000
  0.0000000000000000  0.0000000000000000  0.0000000000000000
  0.0000000000000000  0.0000000000000000  0.0000000000000000
  0.0000000000000000  0.0000000000000000  0.0000000000000000
  0.0000000000000000  0.0000000000000000  0.0000000000000000
  0.0000000000000000  0.0000000000000000  0.0000000000000000
  0.0000000000000000  0.0000000000000000  0.0000000000000000
  0.0000000000000000  0.0000000000000000  0.0000000000000000
  0.0000000000000000  0.0000000000000000  0.0000000000000000
  0.0000000000000000  0.0000000000000000  0.0000000000000000
  0.0000000000000000  0.0000000000000000  0.0000000000000000
  0.0000000000000000  0.0000000000000000  0.0000000000000000
  0.0000000000000000  0.0000000000000000  0.0000000000000000
  0.0000000000000000  0.0000000000000000  0.0000000000000000
  0.0000000000000000  0.0000000000000000  0.0000000000000000
  0.0000000000000000  0.0000000000000000  0.0000000000000000
  0.0000000000000000  0.0000000000000000  0.0000000000000000
