# LAMMPS Input File for Quasi-Spin Ising Model Monte Carlo Simulation
# Simulating cubic-to-tetragonal ferroelastic phase transitions

# Initialize Simulation
units metal
dimension 3
boundary p p p
atom_style atomic

# Define Lattice and Create Atoms
lattice bcc 2.0
region box block 0 10 0 10 0 10
create_box 1 box
create_atoms 1 box

# Assign Atom Properties for Spin States
group variant1 type 1
set group variant1 type/fraction 2 0.33 12345
group variant2 type 2
set group variant2 type/fraction 3 0.33 67890
group variant3 type 3

# Define Interactions (Elastic Interaction Placeholder)
# Replace this with a long-range interaction model as needed
pair_style lj/cut 2.5
pair_coeff * * 0.1 1.0 2.5

# Energy Calculation and Initialization
compute energy all pe/atom
variable total_energy equal pe

# Output Configuration
thermo 100
thermo_style custom step atoms temp v_total_energy

# Define a Monte Carlo Fix (Spin State Changes)
fix mc_update all atom/swap 100 12345 0.1 3.0

# Monte Carlo Move Script (External Script Integration)
# This example uses the "fix atom/swap" as a placeholder
# A more sophisticated implementation may require coupling with Python/Custom Scripts

# Run Simulation (Thermalization and Monte Carlo Steps)
timestep 0.001
velocity all create 300.0 12345 mom yes rot yes
run 10000

# Post-Processing Preparation (Dump File for Diffuse Scattering)
dump 1 all custom 100 dump.mc id type x y z
dump_modify 1 sort id
write_dump all custom final_configuration.lammpstrj id type x y z

