Na16 S32                                
   1.0000000000000000     
     9.6971890486848977    0.0000000000000000    0.0000000000000006
     0.0000000000000015    9.6971890486848977    0.0000000000000006
     0.0000000000000000    0.0000000000000000   11.8698374166008414
   Na   S 
    16    32
Direct
  0.0000000000000000  0.0000000000000000  0.8282043983972969
  0.0000000000000000  0.0000000000000000  0.1717956016027031
  0.0000000000000000  0.5000000000000000  0.4217956016027031
  0.0000000000000000  0.5000000000000000  0.0782043983972969
  0.2500000000000000  0.2274365498153088  0.3750000000000000
  0.7725634501846912  0.2500000000000000  0.6250000000000000
  0.7274365498153088  0.2500000000000000  0.1250000000000000
  0.2500000000000000  0.2725634501846912  0.8750000000000000
  0.5000000000000000  0.5000000000000000  0.3282043983972969
  0.5000000000000000  0.5000000000000000  0.6717956016027031
  0.5000000000000000  0.0000000000000000  0.9217956016027031
  0.5000000000000000  0.0000000000000000  0.5782043983972969
  0.7500000000000000  0.7274365498153088  0.8750000000000000
  0.2725634501846912  0.7500000000000000  0.1250000000000000
  0.2274365498153088  0.7500000000000000  0.6250000000000000
  0.7500000000000000  0.7725634501846912  0.3750000000000000
  0.2484513906151165  0.4672716437034481  0.2038549389758160
  0.5327283562965519  0.2484513906151165  0.7961450610241840
  0.9672716437034481  0.2515486093848835  0.2961450610241840
  0.2484513906151165  0.0327283562965519  0.0461450610241840
  0.7515486093848835  0.9672716437034481  0.0461450610241840
  0.2515486093848835  0.0327283562965519  0.7038549389758160
  0.4672716437034481  0.7484513906151165  0.4538549389758160
  0.5327283562965519  0.2515486093848835  0.4538549389758160
  0.3829867403409821  0.3531568781274572  0.1026902805893855
  0.1468431218725428  0.8829867403409821  0.3973097194106145
  0.3531568781274572  0.6170132596590179  0.8973097194106145
  0.3829867403409821  0.1468431218725428  0.1473097194106145
  0.6170132596590179  0.8531568781274572  0.1473097194106145
  0.1170132596590179  0.1468431218725428  0.6026902805893855
  0.3531568781274572  0.8829867403409821  0.3526902805893855
  0.6468431218725428  0.1170132596590179  0.3526902805893855
  0.7484513906151165  0.9672716437034481  0.7038549389758160
  0.0327283562965519  0.7484513906151165  0.2961450610241840
  0.4672716437034481  0.7515486093848835  0.7961450610241840
  0.7484513906151165  0.5327283562965519  0.5461450610241840
  0.2515486093848835  0.4672716437034481  0.5461450610241840
  0.7515486093848835  0.5327283562965519  0.2038549389758160
  0.9672716437034481  0.2484513906151165  0.9538549389758160
  0.0327283562965519  0.7515486093848835  0.9538549389758160
  0.8829867403409821  0.8531568781274572  0.6026902805893855
  0.6468431218725428  0.3829867403409821  0.8973097194106145
  0.8531568781274572  0.1170132596590179  0.3973097194106145
  0.8829867403409821  0.6468431218725428  0.6473097194106145
  0.1170132596590179  0.3531568781274572  0.6473097194106145
  0.6170132596590179  0.6468431218725428  0.1026902805893855
  0.8531568781274572  0.3829867403409821  0.8526902805893855
  0.1468431218725428  0.6170132596590179  0.8526902805893855

  0.00000000E+00  0.00000000E+00  0.00000000E+00
  0.00000000E+00  0.00000000E+00  0.00000000E+00
  0.00000000E+00  0.00000000E+00  0.00000000E+00
  0.00000000E+00  0.00000000E+00  0.00000000E+00
  0.00000000E+00  0.00000000E+00  0.00000000E+00
  0.00000000E+00  0.00000000E+00  0.00000000E+00
  0.00000000E+00  0.00000000E+00  0.00000000E+00
  0.00000000E+00  0.00000000E+00  0.00000000E+00
  0.00000000E+00  0.00000000E+00  0.00000000E+00
  0.00000000E+00  0.00000000E+00  0.00000000E+00
  0.00000000E+00  0.00000000E+00  0.00000000E+00
  0.00000000E+00  0.00000000E+00  0.00000000E+00
  0.00000000E+00  0.00000000E+00  0.00000000E+00
  0.00000000E+00  0.00000000E+00  0.00000000E+00
  0.00000000E+00  0.00000000E+00  0.00000000E+00
  0.00000000E+00  0.00000000E+00  0.00000000E+00
  0.00000000E+00  0.00000000E+00  0.00000000E+00
  0.00000000E+00  0.00000000E+00  0.00000000E+00
  0.00000000E+00  0.00000000E+00  0.00000000E+00
  0.00000000E+00  0.00000000E+00  0.00000000E+00
  0.00000000E+00  0.00000000E+00  0.00000000E+00
  0.00000000E+00  0.00000000E+00  0.00000000E+00
  0.00000000E+00  0.00000000E+00  0.00000000E+00
  0.00000000E+00  0.00000000E+00  0.00000000E+00
  0.00000000E+00  0.00000000E+00  0.00000000E+00
  0.00000000E+00  0.00000000E+00  0.00000000E+00
  0.00000000E+00  0.00000000E+00  0.00000000E+00
  0.00000000E+00  0.00000000E+00  0.00000000E+00
  0.00000000E+00  0.00000000E+00  0.00000000E+00
  0.00000000E+00  0.00000000E+00  0.00000000E+00
  0.00000000E+00  0.00000000E+00  0.00000000E+00
  0.00000000E+00  0.00000000E+00  0.00000000E+00
  0.00000000E+00  0.00000000E+00  0.00000000E+00
  0.00000000E+00  0.00000000E+00  0.00000000E+00
  0.00000000E+00  0.00000000E+00  0.00000000E+00
  0.00000000E+00  0.00000000E+00  0.00000000E+00
  0.00000000E+00  0.00000000E+00  0.00000000E+00
  0.00000000E+00  0.00000000E+00  0.00000000E+00
  0.00000000E+00  0.00000000E+00  0.00000000E+00
  0.00000000E+00  0.00000000E+00  0.00000000E+00
  0.00000000E+00  0.00000000E+00  0.00000000E+00
  0.00000000E+00  0.00000000E+00  0.00000000E+00
  0.00000000E+00  0.00000000E+00  0.00000000E+00
  0.00000000E+00  0.00000000E+00  0.00000000E+00
  0.00000000E+00  0.00000000E+00  0.00000000E+00
  0.00000000E+00  0.00000000E+00  0.00000000E+00
  0.00000000E+00  0.00000000E+00  0.00000000E+00
  0.00000000E+00  0.00000000E+00  0.00000000E+00
