ALGO = Fast
EDIFF = 0.0024000000000000002
ENCUT = 520
START = 0
IBRION = -1
#ICHARG= 0
ISIF = 3
ISMEAR = 0
ISPIN = 2
LASPH = True
#LORBIT = 11
LCHARG= True
LREAL = Auto
LWAVE = False
MAGMOM = 48*0.6
NELM = 100
NSW = 99
PREC = Accurate
SIGMA = 0.05
