Na16 S32                                
   1.0000000000000000     
     9.6971890486848977    0.0000000000000000    0.0000000000000006
     0.0000000000000015    9.6971890486848977    0.0000000000000006
     0.0000000000000000    0.0000000000000000   11.8698374166008414
   Na   S 
    16    32
Direct
 -0.0000000000000000 -0.0000000000000000  0.8282043983972969
 -0.0000000000000000 -0.0000000000000000  0.1717956016027032
 -0.0000000000000000  0.5000000000000000  0.4217956016027031
 -0.0000000000000000  0.5000000000000000  0.0782043983972969
  0.2500000000000000  0.2274365498153106  0.3750000000000000
  0.7725634501846894  0.2500000000000000  0.6250000000000000
  0.7274365498153106  0.2500000000000000  0.1250000000000000
  0.2500000000000000  0.2725634501846894  0.8750000000000000
  0.5000000000000000  0.5000000000000000  0.3282043983972969
  0.5000000000000000  0.5000000000000000  0.6717956016027031
  0.5000000000000000 -0.0000000000000000  0.9217956016027031
  0.5000000000000000 -0.0000000000000000  0.5782043983972969
  0.7500000000000000  0.7274365498153106  0.8750000000000000
  0.2725634501846894  0.7500000000000000  0.1250000000000000
  0.2274365498153106  0.7500000000000000  0.6250000000000000
  0.7500000000000000  0.7725634501846894  0.3750000000000000
  0.2484513906151181  0.4672716437034458  0.2038549389758132
  0.5327283562965541  0.2484513906151181  0.7961450610241867
  0.9672716437034459  0.2515486093848818  0.2961450610241867
  0.2484513906151181  0.0327283562965542  0.0461450610241867
  0.7515486093848820  0.9672716437034459  0.0461450610241867
  0.2515486093848818  0.0327283562965542  0.7038549389758133
  0.4672716437034458  0.7484513906151180  0.4538549389758133
  0.5327283562965541  0.2515486093848818  0.4538549389758133
  0.3829867403409803  0.3531568781274591  0.1026902805893823
  0.1468431218725409  0.8829867403409805  0.3973097194106177
  0.3531568781274591  0.6170132596590195  0.8973097194106178
  0.3829867403409803  0.1468431218725409  0.1473097194106177
  0.6170132596590195  0.8531568781274591  0.1473097194106177
  0.1170132596590197  0.1468431218725409  0.6026902805893822
  0.3531568781274591  0.8829867403409805  0.3526902805893823
  0.6468431218725409  0.1170132596590197  0.3526902805893823
  0.7484513906151180  0.9672716437034459  0.7038549389758133
  0.0327283562965542  0.7484513906151180  0.2961450610241867
  0.4672716437034458  0.7515486093848820  0.7961450610241867
  0.7484513906151180  0.5327283562965541  0.5461450610241867
  0.2515486093848818  0.4672716437034458  0.5461450610241867
  0.7515486093848820  0.5327283562965541  0.2038549389758132
  0.9672716437034459  0.2484513906151181  0.9538549389758133
  0.0327283562965542  0.7515486093848820  0.9538549389758133
  0.8829867403409805  0.8531568781274591  0.6026902805893822
  0.6468431218725409  0.3829867403409803  0.8973097194106178
  0.8531568781274591  0.1170132596590197  0.3973097194106177
  0.8829867403409805  0.6468431218725409  0.6473097194106178
  0.1170132596590197  0.3531568781274591  0.6473097194106178
  0.6170132596590195  0.6468431218725409  0.1026902805893823
  0.8531568781274591  0.3829867403409803  0.8526902805893822
  0.1468431218725409  0.6170132596590195  0.8526902805893822

  0.00000000E+00  0.00000000E+00  0.00000000E+00
  0.00000000E+00  0.00000000E+00  0.00000000E+00
  0.00000000E+00  0.00000000E+00  0.00000000E+00
  0.00000000E+00  0.00000000E+00  0.00000000E+00
  0.00000000E+00  0.00000000E+00  0.00000000E+00
  0.00000000E+00  0.00000000E+00  0.00000000E+00
  0.00000000E+00  0.00000000E+00  0.00000000E+00
  0.00000000E+00  0.00000000E+00  0.00000000E+00
  0.00000000E+00  0.00000000E+00  0.00000000E+00
  0.00000000E+00  0.00000000E+00  0.00000000E+00
  0.00000000E+00  0.00000000E+00  0.00000000E+00
  0.00000000E+00  0.00000000E+00  0.00000000E+00
  0.00000000E+00  0.00000000E+00  0.00000000E+00
  0.00000000E+00  0.00000000E+00  0.00000000E+00
  0.00000000E+00  0.00000000E+00  0.00000000E+00
  0.00000000E+00  0.00000000E+00  0.00000000E+00
  0.00000000E+00  0.00000000E+00  0.00000000E+00
  0.00000000E+00  0.00000000E+00  0.00000000E+00
  0.00000000E+00  0.00000000E+00  0.00000000E+00
  0.00000000E+00  0.00000000E+00  0.00000000E+00
  0.00000000E+00  0.00000000E+00  0.00000000E+00
  0.00000000E+00  0.00000000E+00  0.00000000E+00
  0.00000000E+00  0.00000000E+00  0.00000000E+00
  0.00000000E+00  0.00000000E+00  0.00000000E+00
  0.00000000E+00  0.00000000E+00  0.00000000E+00
  0.00000000E+00  0.00000000E+00  0.00000000E+00
  0.00000000E+00  0.00000000E+00  0.00000000E+00
  0.00000000E+00  0.00000000E+00  0.00000000E+00
  0.00000000E+00  0.00000000E+00  0.00000000E+00
  0.00000000E+00  0.00000000E+00  0.00000000E+00
  0.00000000E+00  0.00000000E+00  0.00000000E+00
  0.00000000E+00  0.00000000E+00  0.00000000E+00
  0.00000000E+00  0.00000000E+00  0.00000000E+00
  0.00000000E+00  0.00000000E+00  0.00000000E+00
  0.00000000E+00  0.00000000E+00  0.00000000E+00
  0.00000000E+00  0.00000000E+00  0.00000000E+00
  0.00000000E+00  0.00000000E+00  0.00000000E+00
  0.00000000E+00  0.00000000E+00  0.00000000E+00
  0.00000000E+00  0.00000000E+00  0.00000000E+00
  0.00000000E+00  0.00000000E+00  0.00000000E+00
  0.00000000E+00  0.00000000E+00  0.00000000E+00
  0.00000000E+00  0.00000000E+00  0.00000000E+00
  0.00000000E+00  0.00000000E+00  0.00000000E+00
  0.00000000E+00  0.00000000E+00  0.00000000E+00
  0.00000000E+00  0.00000000E+00  0.00000000E+00
  0.00000000E+00  0.00000000E+00  0.00000000E+00
  0.00000000E+00  0.00000000E+00  0.00000000E+00
  0.00000000E+00  0.00000000E+00  0.00000000E+00
