Na10 In2 S8
1.0
   6.7604816583844176    0.0000000000000000   -0.1220139703706208
  -0.0000000000000005    8.7524634799999994    0.0000000000000005
   0.0000000000000000    0.0000000000000000    7.8121762099999996
Na In S
10 2 8
direct
   0.6564231000000000    0.5204406400000000    0.6651811700000000 Na+
   0.3435769000000000    0.0204406400000000    0.3348188300000000 Na+
   0.3435769000000000    0.4795593600000000    0.3348188300000000 Na+
   0.6564231000000000    0.9795593600000000    0.6651811700000000 Na+
   0.9747127600000000    0.2500000000000000    0.5285940200000000 Na+
   0.0252872400000000    0.7500000000000000    0.4714059800000000 Na+
   0.6690149100000000    0.2500000000000000    0.1609171500000000 Na+
   0.3309850900000000    0.7500000000000000    0.8390828500000000 Na+
   0.0000000000000000    0.0000000000000000    0.0000000000000000 Na+
   0.0000000000000000    0.5000000000000000    0.0000000000000000 Na+
   0.6392640700000000    0.7500000000000000    0.1761075100000000 In3+
   0.3607359300000000    0.2500000000000000    0.8238924900000000 In3+
   0.7598324200000000    0.7500000000000000    0.8790514000000000 S2-
   0.2401675800000000    0.2500000000000000    0.1209486000000000 S2-
   0.2333264800000000    0.0184033500000000    0.6716609000000000 S2-
   0.7666735200000000    0.5184033500000000    0.3283391000000000 S2-
   0.7666735200000000    0.9815966500000000    0.3283391000000000 S2-
   0.2333264800000000    0.4815966500000000    0.6716609000000000 S2-
   0.7287564600000001    0.2500000000000000    0.8215074600000000 S2-
   0.2712435400000000    0.7500000000000000    0.1784925400000000 S2-
