pymatgen v1.1 with grid density = 583 / atom
0
Gamma
6 6 1
