Ce8 O16
1.0
3.866071 0.000000 0.000000
-0.000000 3.866071 0.000000
0.000000 0.000000 43.739600
Ce O
8 16
direct
0.000000 0.000000 0.000000 Ce
0.500000 0.500000 0.937500 Ce
0.000000 0.000000 0.875000 Ce
0.500000 0.500000 0.812500 Ce
0.000000 0.000000 0.750000 Ce
0.500000 0.500000 0.687500 Ce
0.000000 0.000000 0.625000 Ce
0.500000 0.500000 0.562500 Ce
0.000000 0.500000 0.906250 O
0.000000 0.500000 0.968750 O
0.500000 0.000000 0.968750 O
0.500000 0.000000 0.906250 O
0.000000 0.500000 0.781250 O
0.000000 0.500000 0.843750 O
0.500000 0.000000 0.843750 O
0.500000 1.000000 0.781250 O
0.000000 0.500000 0.656250 O
0.000000 0.500000 0.718750 O
0.500000 0.000000 0.718750 O
0.500000 0.000000 0.656250 O
0.000000 0.500000 0.531250 O
0.000000 0.500000 0.593750 O
0.500000 0.000000 0.593750 O
0.500000 1.000000 0.531250 O
